 vasp.5.4.1 24Jun15 (build Jul 08 2015 18:11:14) complex

 executed on           IFC91_ompi date 2017.02.23  04:11:20

 INCAR:
 POTCAR:    PAW Bi_d 09Feb1998
 POTCAR:    PAW O 22Mar2012
 POTCAR:    PAW Fe_pv 02Aug2007
 POTCAR:    PAW Bi_d 09Feb1998
   VRHFIN =Bi:

   TITEL  = PAW Bi_d 09Feb1998
   POMASS =  208.980; ZVAL   =   15.000    mass and valenz
   ENMAX  =  242.856; ENMIN  =  182.142 eV

 POTCAR:    PAW O 22Mar2012
   VRHFIN =O: s2p4

   TITEL  = PAW O 22Mar2012
   POMASS =   16.000; ZVAL   =    6.000    mass and valenz
   ENMAX  =  400.000; ENMIN  =  300.000 eV

 POTCAR:    PAW Fe_pv 02Aug2007
   VRHFIN =Fe:  d7 s1

   TITEL  = PAW Fe_pv 02Aug2007
   POMASS =   55.847; ZVAL   =   14.000    mass and valenz
   ENMAX  =  293.303; ENMIN  =  219.977 eV

  PAW Bi_d 09Feb1998                    :
  PAW O 22Mar2012                       :
  PAW Fe_pv 02Aug2007                   :

 POSCAR: Reproduced from the Neaton et al paper
  positions in direct lattice
  velocities in cartesian coordinates
 exchange correlation table for  LEXCH =        2
   RHO(1)=    0.500       N(1)  =     2000
   RHO(2)=  100.500       N(2)  =     4000

 ion  position               nearest neighbor table
   1  0.000  0.000  0.000-   7 2.32   8 2.32   6 2.32   5 2.42   3 2.42   4 2.42   9 3.06  10 3.28
                            10 3.28  10 3.28   2 3.90   2 3.90   2 3.90   2 3.90   2 3.90   2 3.90
   2  0.500  0.500  0.500-   4 2.32   3 2.32   5 2.32   6 2.42   8 2.42   7 2.42  10 3.06   9 3.28
                             9 3.28   9 3.28   1 3.90   1 3.90   1 3.90   1 3.90   1 3.90   1 3.90
   3  0.540  0.943  0.398-   9 1.95  10 2.05   2 2.32   1 2.42
   4  0.398  0.540  0.943-   9 1.95  10 2.05   2 2.32   1 2.42
   5  0.943  0.398  0.540-   9 1.95  10 2.05   2 2.32   1 2.42
   6  0.443  0.040  0.898-  10 1.95   9 2.05   1 2.32   2 2.42
   7  0.040  0.898  0.443-  10 1.95   9 2.05   1 2.32   2 2.42
   8  0.898  0.443  0.040-  10 1.95   9 2.05   1 2.32   2 2.42
   9  0.226  0.226  0.226-   4 1.95   3 1.95   5 1.95   7 2.05   8 2.05   6 2.05   1 3.06   2 3.28
                             2 3.28   2 3.28
  10  0.726  0.726  0.726-   8 1.95   7 1.95   6 1.95   3 2.05   4 2.05   5 2.05   2 3.06   1 3.28
                             1 3.28   1 3.28

  LATTYP: Found a trigonal (rhomboedric) cell.
 ALAT       =     5.5228638993
 COS(alpha) =     0.5037521605

  Lattice vectors:

 A1 = (   5.5228459597,   0.0114939438,   0.0081268316)
 A2 = (   2.7722106199,   4.7766942423,   0.0081268316)
 A3 = (   2.7722106199,   1.6002140567,   4.5006876033)

Analysis of symmetry for initial positions (statically):
 Subroutine PRICEL returns:
 Original cell was already a primitive cell.

 Routine SETGRP: Setting up the symmetry group for a
 trigonal (rhombohedral) supercell.

 Subroutine GETGRP returns: Found  6 space group operations
 (whereof  3 operations were pure point group operations)
 out of a pool of 12 trial point group operations.

The static configuration has the point symmetry C_3 .
 The point group associated with its full space group is C_3v.

Analysis of symmetry for dynamics (positions and initial velocities):
 Subroutine PRICEL returns:
 Original cell was already a primitive cell.

 Routine SETGRP: Setting up the symmetry group for a
 trigonal (rhombohedral) supercell.

 Subroutine GETGRP returns: Found  6 space group operations
 (whereof  3 operations were pure point group operations)
 out of a pool of 12 trial point group operations.

The dynamic configuration has the point symmetry C_3 .
 The point group associated with its full space group is C_3v.

Analysis of magnetic symmetry:
 Subroutine PRICEL returns:
 Original cell was already a primitive cell.

 Subroutine MAGSYM returns: Found  6 space group operations
 (whereof  3 operations were pure point group operations)
 out of a pool of  6 trial space group operations
 (whereof  3 operations were pure point group operations)
 and found also     1 'primitive' translations

The magnetic configuration has the point symmetry C_3 .
 The point group associated with its full space group is C_3v.

 KPOINTS: Gamma centred mesh

Automatic generation of k-mesh.
Space group operators:
 irot       det(A)        alpha          n_x          n_y          n_z        tau_x        tau_y        tau_z
    1     1.000000     0.000000     1.000000     0.000000     0.000000     0.000000     0.000000     0.000000
    2     1.000000   120.000000    -0.816558    -0.471345    -0.333266     0.000000     0.000000     0.000000
    3     1.000000   120.000000     0.816558     0.471345     0.333266     0.000000     0.000000     0.000000
    4    -1.000000   180.000000    -0.000000    -0.577321     0.816517     0.500383     0.500383     0.500383
    5    -1.000000   180.000000    -0.499924     0.866069    -0.000000     0.500383     0.500383     0.500383
    6    -1.000000   180.000000    -0.499924     0.288748     0.816517     0.500383     0.500383     0.500383

 Subroutine IBZKPT returns following result:

 Found     65 irreducible k-points:

 Following reciprocal coordinates:
            Coordinates               Weight
  0.000000  0.000000  0.000000      1.000000
  0.125000 -0.000000 -0.000000      6.000000
  0.250000 -0.000000 -0.000000      6.000000
  0.375000  0.000000 -0.000000      6.000000
  0.500000 -0.000000 -0.000000      3.000000
  0.125000  0.125000 -0.000000      6.000000
  0.250000  0.125000 -0.000000     12.000000
  0.375000  0.125000 -0.000000     12.000000
  0.500000  0.125000 -0.000000     12.000000
 -0.375000  0.125000  0.000000     12.000000
 -0.250000  0.125000  0.000000     12.000000
 -0.125000  0.125000  0.000000      6.000000
  0.250000  0.250000 -0.000000      6.000000
  0.375000  0.250000 -0.000000     12.000000
  0.500000  0.250000 -0.000000     12.000000
 -0.375000  0.250000  0.000000     12.000000
 -0.250000  0.250000  0.000000      6.000000
  0.375000  0.375000  0.000000      6.000000
  0.500000  0.375000 -0.000000     12.000000
 -0.375000  0.375000  0.000000      6.000000
  0.500000  0.500000 -0.000000      3.000000
  0.125000  0.125000  0.125000      2.000000
  0.250000  0.125000  0.125000      6.000000
  0.375000  0.125000  0.125000      6.000000
  0.500000  0.125000  0.125000      6.000000
 -0.375000  0.125000  0.125000      6.000000
 -0.250000  0.125000  0.125000      6.000000
 -0.125000  0.125000  0.125000      6.000000
  0.250000  0.250000  0.125000      6.000000
  0.375000  0.250000  0.125000     12.000000
  0.500000  0.250000  0.125000     12.000000
 -0.375000  0.250000  0.125000     12.000000
 -0.250000  0.250000  0.125000     12.000000
 -0.125000  0.250000  0.125000     12.000000
  0.375000  0.375000  0.125000      6.000000
  0.500000  0.375000  0.125000     12.000000
 -0.375000  0.375000  0.125000     12.000000
 -0.250000  0.375000  0.125000     12.000000
 -0.125000  0.375000  0.125000     12.000000
  0.500000  0.500000  0.125000      6.000000
 -0.375000  0.500000  0.125000     12.000000
 -0.250000  0.500000  0.125000     12.000000
 -0.125000  0.500000  0.125000      6.000000
 -0.375000 -0.375000  0.125000      6.000000
 -0.250000 -0.375000  0.125000     12.000000
 -0.250000 -0.250000  0.125000      6.000000
  0.250000  0.250000  0.250000      2.000000
  0.375000  0.250000  0.250000      6.000000
  0.500000  0.250000  0.250000      6.000000
 -0.375000  0.250000  0.250000      6.000000
 -0.250000  0.250000  0.250000      6.000000
  0.375000  0.375000  0.250000      6.000000
  0.500000  0.375000  0.250000     12.000000
 -0.375000  0.375000  0.250000     12.000000
 -0.250000  0.375000  0.250000     12.000000
  0.500000  0.500000  0.250000      6.000000
 -0.375000  0.500000  0.250000     12.000000
 -0.250000  0.500000  0.250000      6.000000
 -0.375000 -0.375000  0.250000      6.000000
  0.375000  0.375000  0.375000      2.000000
  0.500000  0.375000  0.375000      6.000000
 -0.375000  0.375000  0.375000      6.000000
  0.500000  0.500000  0.375000      6.000000
 -0.375000  0.500000  0.375000      6.000000
  0.500000  0.500000  0.500000      1.000000

 Following cartesian coordinates:
            Coordinates               Weight
  0.000000  0.000000  0.000000      1.000000
  0.022674 -0.013143 -0.009293      6.000000
  0.045349 -0.026287 -0.018586      6.000000
  0.068023 -0.039430 -0.027879      6.000000
  0.090697 -0.052574 -0.037173      3.000000
  0.022633  0.013065 -0.018586      6.000000
  0.045308 -0.000079 -0.027879     12.000000
  0.067982 -0.013222 -0.037173     12.000000
  0.090656 -0.026366 -0.046466     12.000000
 -0.068064  0.065639  0.018586     12.000000
 -0.045389  0.052495  0.009293     12.000000
 -0.022715  0.039352 -0.000000      6.000000
  0.045267  0.026130 -0.037173      6.000000
  0.067941  0.012986 -0.046466     12.000000
  0.090615 -0.000157 -0.055759     12.000000
 -0.068105  0.091847  0.009293     12.000000
 -0.045430  0.078703 -0.000000      6.000000
  0.067900  0.039194 -0.055759      6.000000
  0.090575  0.026051 -0.065052     12.000000
 -0.068145  0.118055 -0.000000      6.000000
  0.090534  0.052259 -0.074345      3.000000
  0.022593  0.013041  0.009221      2.000000
  0.045267 -0.000102 -0.000072      6.000000
  0.067941 -0.013246 -0.009365      6.000000
  0.090615 -0.026389 -0.018659      6.000000
 -0.068105  0.065615  0.046393      6.000000
 -0.045430  0.052472  0.037100      6.000000
 -0.022756  0.039328  0.027807      6.000000
  0.045226  0.026106 -0.009365      6.000000
  0.067900  0.012962 -0.018659     12.000000
  0.090575 -0.000181 -0.027952     12.000000
 -0.068145  0.091823  0.037100     12.000000
 -0.045471  0.078680  0.027807     12.000000
 -0.022797  0.065536  0.018514     12.000000
  0.067859  0.039171 -0.027952      6.000000
  0.090534  0.026027 -0.037245     12.000000
 -0.068186  0.118032  0.027807     12.000000
 -0.045512  0.104888  0.018514     12.000000
 -0.022838  0.091745  0.009221     12.000000
  0.090493  0.052236 -0.046538      6.000000
 -0.068227  0.144240  0.018514     12.000000
 -0.045553  0.131096  0.009221     12.000000
 -0.022879  0.117953 -0.000072      6.000000
 -0.067941 -0.039218  0.083566      6.000000
 -0.045267 -0.052361  0.074273     12.000000
 -0.045308 -0.026153  0.064980      6.000000
  0.045185  0.026082  0.018442      2.000000
  0.067859  0.012939  0.009148      6.000000
  0.090534 -0.000205 -0.000145      6.000000
 -0.068186  0.091800  0.064907      6.000000
 -0.045512  0.078656  0.055614      6.000000
  0.067819  0.039147 -0.000145      6.000000
  0.090493  0.026004 -0.009438     12.000000
 -0.068227  0.118008  0.055614     12.000000
 -0.045553  0.104865  0.046321     12.000000
  0.090452  0.052212 -0.018731      6.000000
 -0.068268  0.144216  0.046321     12.000000
 -0.045594  0.131073  0.037028      6.000000
 -0.067982 -0.039242  0.111373      6.000000
  0.067778  0.039124  0.027662      2.000000
  0.090452  0.025980  0.018369      6.000000
 -0.068268  0.117984  0.083421      6.000000
  0.090411  0.052188  0.009076      6.000000
 -0.068309  0.144193  0.074128      6.000000
  0.090370  0.052165  0.036883      1.000000

 Subroutine IBZKPT_HF returns following result:

 Found    512 k-points in 1st BZ
 the following    512 k-points will be used (e.g. in the exchange kernel)
[...]

[...]

 eigenvalue-minimisations  : 14776
 total energy-change (2. order) :-0.1218225E+04  (-0.1184029E+04)
 number of electron      93.9999877 magnetization       0.0000000
 augmentation part       93.9999877 magnetization       0.0000000

[...]

 Broyden mixing:
  rms(total) = 0.27105E-01    rms(broyden)= 0.27062E-01
  rms(prec ) = 0.49285E-01
  weight for this iteration     100.00

[...]

 eigenvalues of (default mixing * dielectric matrix)
  average eigenvalue GAMMA=   0.5357
  0.5357

[...]

 eigenvalue-minimisations  : 19976
 total energy-change (2. order) : 0.7972927E-05  (-0.1422650E-04)
 number of electron      93.9999877 magnetization       0.0000000
 augmentation part       32.1910969 magnetization       0.0000000

[...]

 Broyden mixing:
  rms(total) = 0.96478E-02    rms(broyden)= 0.96473E-02
  rms(prec ) = 0.20062E-01
  weight for this iteration     100.00

 eigenvalues of (default mixing * dielectric matrix)
  average eigenvalue GAMMA=   1.2249
  2.7458  2.5302  2.0236  0.9849  0.9849  0.9010  0.8765  0.5721  0.5721  0.6704
  0.6127

[...]

----------------------------------------- Iteration    1(  17)  ---------------------------------------

atom =   9  type =  3  l = 2

[...]

  o =  0.0928  v =  0.0000  0.0000  0.0000  0.0000  0.0000  0.2475 -0.3587  0.4573  0.5906 -0.5021      0.0000  0.0000  0.0000  0.0000  0.0000  0.0000  0.0000  0.0000  0.0000  0.0000
  o =  0.0928  v =  0.0000  0.0000  0.0000  0.0000  0.0000 -0.0065  0.0431  0.7599 -0.0080  0.6486      0.0000  0.0000  0.0000  0.0000  0.0000  0.0000  0.0000  0.0000  0.0000  0.0000
  o =  0.0935  v =  0.0000  0.0000  0.0000  0.0000  0.0000 -0.6666 -0.2721  0.3334 -0.4713 -0.3850      0.0000  0.0000  0.0000  0.0000  0.0000  0.0000  0.0000  0.0000  0.0000  0.0000
  o =  0.2740  v =  0.0000  0.0000  0.0000  0.0000  0.0000 -0.2767  0.8626  0.1897  0.2557 -0.2792      0.0000  0.0000  0.0000  0.0000  0.0000  0.0000  0.0000  0.0000  0.0000  0.0000
  o =  0.2740  v =  0.0000  0.0000  0.0000  0.0000  0.0000 -0.6463 -0.2266 -0.2576  0.6030  0.3178      0.0000  0.0000  0.0000  0.0000  0.0000  0.0000  0.0000  0.0000  0.0000  0.0000
  o =  0.9668  v =  0.6666  0.2721 -0.3334  0.4713  0.3850  0.0000  0.0000  0.0000  0.0000  0.0000      0.0000  0.0000  0.0000  0.0000  0.0000  0.0000  0.0000  0.0000  0.0000  0.0000
  o =  0.9672  v = -0.0232  0.0958  0.7324 -0.0531  0.6716  0.0000  0.0000  0.0000  0.0000  0.0000      0.0000  0.0000  0.0000  0.0000  0.0000  0.0000  0.0000  0.0000  0.0000  0.0000
  o =  0.9672  v =  0.2675 -0.3603  0.5162  0.5683 -0.4573  0.0000  0.0000  0.0000  0.0000  0.0000      0.0000  0.0000  0.0000  0.0000  0.0000  0.0000  0.0000  0.0000  0.0000  0.0000
  o =  1.0105  v = -0.5394 -0.4624 -0.2735  0.5204  0.3867  0.0000  0.0000  0.0000  0.0000  0.0000      0.0000  0.0000  0.0000  0.0000  0.0000  0.0000  0.0000  0.0000  0.0000  0.0000
  o =  1.0105  v =  0.4388 -0.7571 -0.1057 -0.4256  0.2048  0.0000  0.0000  0.0000  0.0000  0.0000      0.0000  0.0000  0.0000  0.0000  0.0000  0.0000  0.0000  0.0000  0.0000  0.0000
atom =  10  type =  3  l = 2

 onsite density matrix

[...]

  0.9740  0.0020 -0.0025 -0.0154  0.0028
  0.0020  0.9873 -0.0081 -0.0046 -0.0194
 -0.0025 -0.0081  0.9709  0.0057  0.0066
 -0.0154 -0.0046  0.0057  1.0006 -0.0065
  0.0028 -0.0194  0.0066 -0.0065  0.9894

 occupancies and eigenvectors

  o =  0.0928  v =  0.2792 -0.6881 -0.4995  0.0133 -0.4460  0.0000  0.0000  0.0000  0.0000  0.0000      0.0000  0.0000  0.0000  0.0000  0.0000  0.0000  0.0000  0.0000  0.0000  0.0000
  o =  0.0928  v = -0.5752  0.0675 -0.7328 -0.0341  0.3555  0.0000  0.0000  0.0000  0.0000  0.0000      0.0000  0.0000  0.0000  0.0000  0.0000  0.0000  0.0000  0.0000  0.0000  0.0000
  o =  0.0935  v =  0.6666  0.2721 -0.3334  0.4713  0.3850  0.0000  0.0000  0.0000  0.0000  0.0000      0.0000  0.0000  0.0000  0.0000  0.0000  0.0000  0.0000  0.0000  0.0000  0.0000
  o =  0.2740  v =  0.3831  0.1229 -0.1534 -0.8811  0.1957  0.0000  0.0000  0.0000  0.0000  0.0000      0.0000  0.0000  0.0000  0.0000  0.0000  0.0000  0.0000  0.0000  0.0000  0.0000
  o =  0.2740  v = -0.0038 -0.6579  0.2807  0.0129  0.6987  0.0000  0.0000  0.0000  0.0000  0.0000      0.0000  0.0000  0.0000  0.0000  0.0000  0.0000  0.0000  0.0000  0.0000  0.0000
  o =  0.9668  v =  0.0000  0.0000  0.0000  0.0000  0.0000 -0.6666 -0.2721  0.3334 -0.4713 -0.3850      0.0000  0.0000  0.0000  0.0000  0.0000  0.0000  0.0000  0.0000  0.0000  0.0000
  o =  0.9672  v =  0.0000  0.0000  0.0000  0.0000  0.0000  0.5707 -0.0954  0.7312  0.0565 -0.3568      0.0000  0.0000  0.0000  0.0000  0.0000  0.0000  0.0000  0.0000  0.0000  0.0000
  o =  0.9672  v =  0.0000  0.0000  0.0000  0.0000  0.0000 -0.2612  0.6721  0.5179 -0.0276  0.4595      0.0000  0.0000  0.0000  0.0000  0.0000  0.0000  0.0000  0.0000  0.0000  0.0000
  o =  1.0105  v =  0.0000  0.0000  0.0000  0.0000  0.0000 -0.0396 -0.6799  0.2661  0.0836  0.6771      0.0000  0.0000  0.0000  0.0000  0.0000  0.0000  0.0000  0.0000  0.0000  0.0000
  o =  1.0105  v =  0.0000  0.0000  0.0000  0.0000  0.0000 -0.4001 -0.0542  0.1232  0.8757 -0.2344      0.0000  0.0000  0.0000  0.0000  0.0000  0.0000  0.0000  0.0000  0.0000  0.0000

 eigenvalue-minimisations  : 10104
 total energy-change (2. order) :-0.4782123E-08  (-0.5144972E-09)
 number of electron      93.9999877 magnetization       0.0000000
 augmentation part       32.1915744 magnetization       0.0000000

 Free energy of the ion-electron system (eV)
  alpha Z        PSCENC =       425.36722793
  Ewald energy   TEWEN  =     -8524.29673935
  -Hartree energ DENC   =     -2841.02286755
  -exchange      EXHF   =         0.00000000
  -V(xc)+E(xc)   XCENC  =       419.12650582
  PAW double counting   =     11023.13691095   -11152.79432206
  entropy T*S    EENTRO =        -0.00000000
  eigenvalues    EBANDS =      -856.05890985
  atomic energy  EATOM  =     11436.88025691
  Solvation  Ediel_sol  =         0.00000000
  free energy    TOTEN  =       -69.66193721 eV

  energy without entropy =      -69.66193721  energy(sigma->0) =      -69.66193721

 average (electrostatic) potential at core
  the test charge radii are     1.0856  0.7215  0.9500
  (the norm of the test charge is              1.0000)
       1-103.3881       2-103.3355       3 -68.3558       4 -68.3725       5 -68.3567
       6 -68.3749       7 -68.3582       8 -68.3739       9 -78.6550      10 -78.6392

 E-fermi :   7.0008     XC(G=0): -12.2457     alpha+bet :-13.7587

[...]

 k-point     1 :       0.0000    0.0000    0.0000
  band No.  band energies     occupation
      1     -49.3262      1.00000
      2     -49.2643      1.00000
      3     -49.2622      1.00000
      4     -44.9279      1.00000
      5     -44.8877      1.00000
      6     -44.8856      1.00000
      7     -15.3707      1.00000
      8     -15.3696      1.00000
      9     -15.2932      1.00000
     10     -15.2730      1.00000
     11     -15.2713      1.00000
     12     -15.2008      1.00000
     13     -15.1996      1.00000
     14     -15.1903      1.00000
     15     -15.1540      1.00000
     16     -15.1520      1.00000
     17     -12.0575      1.00000
     18      -9.9936      1.00000
     19      -9.9842      1.00000
     20      -9.9783      1.00000
     21      -9.6661      1.00000
     22      -9.6593      1.00000
     23      -3.2550      1.00000
     24      -1.4556      1.00000
     25      -0.3276      1.00000
     26      -0.3252      1.00000
     27      -0.0399      1.00000
     28      -0.0384      1.00000
     29       0.2344      1.00000
     30       0.4601      1.00000
     31       1.6024      1.00000
     32       1.6037      1.00000
     33       1.7512      1.00000
     34       2.3672      1.00000
     35       2.3690      1.00000
     36       2.6695      1.00000
     37       4.4660      1.00000
     38       4.4694      1.00000
     39       5.1988      1.00000
     40       5.2031      1.00000
     41       5.2963      1.00000
     42       5.5805      1.00000
     43       5.5823      1.00000
     44       5.7889      1.00000
     45       5.9127      1.00000
     46       5.9159      1.00000
     47       6.1147      1.00000
     48       9.1618      0.00000
     49       9.1640      0.00000
     50       9.1883      0.00000
     51      10.5958      0.00000
     52      10.5977      0.00000
     53      12.3611      0.00000
     54      12.3629      0.00000
     55      12.9179      0.00000
     56      12.9596      0.00000

[...]

 spin component 2

[...]

 k-point    65 :       0.5000    0.5000    0.5000
  band No.  band energies     occupation
      1     -49.3030      1.00000
      2     -49.2523      1.00000
      3     -49.2501      1.00000
      4     -44.9500      1.00000
      5     -44.8998      1.00000
      6     -44.8978      1.00000
      7     -15.3083      1.00000
      8     -15.3043      1.00000
      9     -15.2762      1.00000
     10     -15.2722      1.00000
     11     -15.2662      1.00000
     12     -15.2185      1.00000
     13     -15.2160      1.00000
     14     -15.2131      1.00000
     15     -15.1892      1.00000
     16     -15.1844      1.00000
     17     -11.1652      1.00000
     18     -11.1010      1.00000
     19      -9.9427      1.00000
     20      -9.9377      1.00000
     21      -9.7905      1.00000
     22      -9.7856      1.00000
     23      -2.9144      1.00000
     24      -2.8291      1.00000
     25      -0.2295      1.00000
     26      -0.2280      1.00000
     27       0.1942      1.00000
     28       0.1953      1.00000
     29       0.4167      1.00000
     30       1.7735      1.00000
     31       1.9625      1.00000
     32       1.9636      1.00000
     33       2.2269      1.00000
     34       3.0203      1.00000
     35       3.0217      1.00000
     36       3.5771      1.00000
     37       3.5787      1.00000
     38       4.0612      1.00000
     39       4.2578      1.00000
     40       4.6770      1.00000
     41       4.6818      1.00000
     42       5.0132      1.00000
     43       5.0192      1.00000
     44       6.2556      1.00000
     45       6.3580      1.00000
     46       6.3597      1.00000
     47       6.6593      1.00000
     48       8.9129      0.00000
     49       9.2713      0.00000
     50       9.2737      0.00000
     51      10.1869      0.00000
     52      10.2398      0.00000
     53      10.2417      0.00000
     54      10.6194      0.00000
     55      12.4271      0.00000
     56      12.4288      0.00000

 soft charge-density along one line, spin component           1
         0         1         2         3         4         5         6         7         8         9
 total charge-density along one line

 soft charge-density along one line, spin component           2
         0         1         2         3         4         5         6         7         8         9
 total charge-density along one line

------------------------ aborting loop because EDIFF is reached ----------------------------------------

            Ionic dipole moment: p[ion]=(   -10.12261    -5.84311    -4.13139 ) electrons Angst

    Spin resolved dipole moment: p[sp1]=(    -0.31359    -0.18104    -0.12796 ) electrons Angst
                                 p[sp2]=(     5.22038     3.01167     2.12977 ) electrons Angst

 Total electronic dipole moment: p[elc]=(     4.90679     2.83064     2.00181 ) electrons Angst

 total charge

# of ion     s       p       d       tot
  1        1.656   0.871  10.030  12.556
  2        1.656   0.869  10.030  12.555
  3        1.560   3.473   0.000   5.033
  4        1.563   3.364   0.000   4.926
  5        1.561   3.450   0.000   5.011
  6        1.560   3.433   0.000   4.994
  7        1.563   3.363   0.000   4.926
  8        1.561   3.500   0.000   5.061
  9        0.317   6.405   5.727  12.449
 10        0.316   6.405   5.722  12.443
tot       13.313  35.133  31.508  79.954

 magnetization (x)

[...]

  FORCE on cell =-STRESS in cart. coord.  units (eV):
  Direction    XX          YY          ZZ          XY          YZ          ZX
  Alpha Z   425.36723   425.36723   425.36723
  Ewald   -2868.08254 -2832.55256 -2823.67410   -30.75746   -12.55320   -21.74717
  Hartree   929.12630   952.99359   958.90482   -20.58006    -8.43627   -14.54875
  E(xc)    -495.57749  -495.58120  -495.58057     0.00083     0.00152     0.00046
  Local      47.31665   -13.66649   -28.75049    52.55354    21.56370    37.14741
  n-local    24.01936    24.16287    24.87469     1.21132    -0.16850     1.44558
  augment   593.14172   594.49761   594.81023    -1.13333    -0.48115    -0.80034
  Kinetic  1346.18103  1344.11025  1343.27191    -0.57240     1.14423    -4.50984
  Fock        0.00000     0.00000     0.00000     0.00000     0.00000     0.00000
  Total       0.00922     0.01795     0.02013    -0.00756    -0.00308    -0.00534
  in kB       0.12466     0.24275     0.27226    -0.10223    -0.04172    -0.07228

 VOLUME and BASIS-vectors are now :
  energy-cutoff  :      520.00
  volume of cell :      118.45
      direct lattice vectors                 reciprocal lattice vectors
     5.522845960  0.011493944  0.008126832     0.181394296 -0.105147823 -0.074345122
     2.772210620  4.776694242  0.008126832    -0.000326951  0.209666040 -0.074345122
     2.772210620  1.600214057  4.500687603    -0.000326951 -0.000188727  0.222456760

  length of vectors
     5.522863899  5.522863899  5.522863899     0.222457080  0.222457080  0.222457080

 FORCES acting on ions
    electron-ion (+dipol)            ewald-force                    non-local-force                 convergence-correction
   0.176E+03 0.102E+03 0.724E+02   -.184E+03 -.106E+03 -.752E+02   0.814E+01 0.470E+01 0.332E+01   -.789E-04 -.452E-04 -.371E-04
   0.176E+03 0.101E+03 0.713E+02   -.184E+03 -.106E+03 -.752E+02   0.814E+01 0.470E+01 0.332E+01   -.699E-04 -.407E-04 -.235E-04
   -.337E+02 -.331E+02 0.350E+02   0.366E+02 0.363E+02 -.341E+02   -.317E+01 -.292E+01 -.822E+00   -.618E-05 -.640E-05 -.145E-04
   0.208E+01 -.397E+02 -.430E+02   0.952E+00 0.417E+02 0.455E+02   -.310E+01 -.187E+01 -.248E+01   -.169E-04 0.398E-06 -.244E-06
   -.456E+02 0.290E+02 -.234E+02   0.497E+02 -.276E+02 0.242E+02   -.411E+01 -.120E+01 -.938E+00   -.760E-05 -.161E-04 0.146E-05
   -.457E+02 -.120E+02 0.348E+02   0.497E+02 0.136E+02 -.341E+02   -.411E+01 -.129E+01 -.822E+00   -.767E-05 -.298E-05 -.192E-04
   -.335E+02 0.219E+02 -.431E+02   0.366E+02 -.200E+02 0.455E+02   -.317E+01 -.175E+01 -.248E+01   -.433E-05 -.206E-04 0.102E-05
   0.199E+01 -.538E+02 -.231E+02   0.951E+00 0.569E+02 0.242E+02   -.310E+01 -.296E+01 -.938E+00   -.191E-04 0.215E-05 0.478E-05
   -.959E+02 -.553E+02 -.400E+02   0.970E+02 0.560E+02 0.396E+02   -.126E+01 -.728E+00 -.515E+00   0.277E-04 0.171E-04 0.185E-04
   -.956E+02 -.551E+02 -.381E+02   0.970E+02 0.560E+02 0.396E+02   -.126E+01 -.728E+00 -.515E+00   0.140E-04 0.875E-05 -.136E-05
   0.635E+01 0.517E+01 0.286E+01   0.568E-13 -.213E-13 0.284E-13   -.700E+01 -.404E+01 -.286E+01   -.169E-03 -.104E-03 -.702E-04

 POSITION                                       TOTAL-FORCE (eV/Angst)
      0.00424      0.00244      0.00173         0.002139      0.001235      0.000873
      5.53787      3.19665      2.26020         0.002139      0.001235      0.000873
      6.70178      5.14853      1.80433        -0.000674     -0.000257      0.000571
      6.31134      4.09400      4.25239         0.000055     -0.000810     -0.000432
      7.81021      2.77740      2.44201        -0.000559      0.000387     -0.000620
      5.04878      1.63430      4.04654        -0.000559     -0.000455      0.000571
      3.94035      5.00011      2.00205        -0.000674      0.000453     -0.000432
      6.30056      2.19133      0.19167         0.000055     -0.000678     -0.000620
      2.50224      1.44438      1.02125        -0.000961     -0.000555     -0.000392
      8.03587      4.63858      3.27972        -0.000961     -0.000555     -0.000392
    total drift:                               -0.649229      1.122999     -0.000530

  FREE ENERGIE OF THE ION-ELECTRON SYSTEM (eV)
  free  energy   TOTEN  =       -69.66193721 eV

  energy  without entropy=      -69.66193721  energy(sigma->0) =      -69.66193721

 total charge

[...]

 magnetization (x)

# of ion     s       p       d       tot
  1        0.001  -0.003   0.001  -0.002
  2       -0.001   0.003  -0.001   0.002
  3        0.000   0.037   0.000   0.037
  4        0.001   0.034   0.000   0.035
  5        0.001   0.029   0.000   0.030
  6       -0.001  -0.030   0.000  -0.031
  7        0.000  -0.041   0.000  -0.040
  8       -0.001  -0.026   0.000  -0.028
  9        0.008   0.015   4.089   4.113
 10       -0.008  -0.015  -4.094  -4.117
tot        0.001   0.003  -0.004  -0.000