 vasp.5.4.1 24Jun15 (build Jul 08 2015 18:11:14) complex

 executed on           IFC91_ompi date 2016.08.18  04:05:32

 INCAR:
 POTCAR:    PAW_PBE Bi_d 06Sep2000
 POTCAR:    PAW_PBE O 08Apr2002
 POTCAR:    PAW_PBE Fe_pv 02Aug2007
 POTCAR:    PAW_PBE Bi_d 06Sep2000
   VRHFIN =Bi:

   TITEL  = PAW_PBE Bi_d 06Sep2000
   POMASS =  208.980; ZVAL   =   15.000    mass and valenz
   ENMAX  =  242.839; ENMIN  =  182.129 eV

 POTCAR:    PAW_PBE O 08Apr2002
   VRHFIN =O: s2p4

   TITEL  = PAW_PBE O 08Apr2002
   POMASS =   16.000; ZVAL   =    6.000    mass and valenz
   ENMAX  =  400.000; ENMIN  =  300.000 eV

 POTCAR:    PAW_PBE Fe_pv 02Aug2007
   VRHFIN =Fe:  3pd7s1

   TITEL  = PAW_PBE Fe_pv 02Aug2007
   POMASS =   55.847; ZVAL   =   14.000    mass and valenz
   ENMAX  =  293.238; ENMIN  =  219.928 eV

  PAW_PBE Bi_d 06Sep2000                :
  PAW_PBE O 08Apr2002                   :
  PAW_PBE Fe_pv 02Aug2007               :

 POSCAR: Bi2 O6 Fe2
  positions in direct lattice
 exchange correlation table for  LEXCH =        8
   RHO(1)=    0.500       N(1)  =     2000
   RHO(2)=  100.500       N(2)  =     4000

 ion  position               nearest neighbor table
   1  0.498  0.498  0.498-   6 2.32   7 2.32   8 2.32   5 2.50   3 2.50   4 2.50   9 3.11  10 3.34
                            10 3.34  10 3.34
   2  0.998  0.998  0.998-   3 2.32   4 2.32   5 2.32   8 2.50   6 2.50   7 2.50  10 3.11   9 3.34
                             9 3.34   9 3.34
   3  0.888  0.434  0.032-   9 1.99  10 2.13   2 2.32   1 2.50
   4  0.434  0.032  0.888-   9 1.99  10 2.13   2 2.32   1 2.50
   5  0.032  0.888  0.434-   9 1.99  10 2.13   2 2.32   1 2.50
   6  0.532  0.934  0.388-  10 1.99   9 2.13   1 2.32   2 2.50
   7  0.388  0.532  0.934-  10 1.99   9 2.13   1 2.32   2 2.50
   8  0.934  0.388  0.532-  10 1.99   9 2.13   1 2.32   2 2.50
   9  0.719  0.719  0.719-   5 1.99   4 1.99   3 1.99   6 2.13   8 2.13   7 2.13   1 3.11   2 3.34
                             2 3.34   2 3.34
  10  0.219  0.219  0.219-   7 1.99   8 1.99   6 1.99   5 2.13   3 2.13   4 2.13   2 3.11   1 3.34
                             1 3.34   1 3.34

  LATTYP: Found a trigonal (rhomboedric) cell.
 ALAT       =     5.7061781022
 COS(alpha) =     0.5140915352

  Lattice vectors:

 A1 = (   4.9648480442,  -2.8125971256,   0.0070598030)
 A2 = (   4.9648478323,   2.8125974981,   0.0070604124)
 A3 = (   3.3649621400,  -0.0000003725,   4.6084160327)

Analysis of symmetry for initial positions (statically):
 Subroutine PRICEL returns:
 Original cell was already a primitive cell.

 Routine SETGRP: Setting up the symmetry group for a
 trigonal (rhombohedral) supercell.

 Subroutine GETGRP returns: Found  6 space group operations
 (whereof  3 operations were pure point group operations)
 out of a pool of 12 trial point group operations.

The static configuration has the point symmetry C_3 .
 The point group associated with its full space group is C_3v.

Analysis of symmetry for dynamics (positions and initial velocities):
 Subroutine PRICEL returns:
 Original cell was already a primitive cell.

 Routine SETGRP: Setting up the symmetry group for a
 trigonal (rhombohedral) supercell.

 Subroutine GETGRP returns: Found  6 space group operations
 (whereof  3 operations were pure point group operations)
 out of a pool of 12 trial point group operations.

The dynamic configuration has the point symmetry C_3 .
 The point group associated with its full space group is C_3v.

Analysis of magnetic symmetry:
 Subroutine PRICEL returns:
 Original cell was already a primitive cell.

 Subroutine MAGSYM returns: Found  6 space group operations
 (whereof  3 operations were pure point group operations)
 out of a pool of  6 trial space group operations
 (whereof  3 operations were pure point group operations)
 and found also     1 'primitive' translations

The magnetic configuration has the point symmetry C_3 .
 The point group associated with its full space group is C_3v.

 KPOINTS: Gamma centred mesh

Automatic generation of k-mesh.
Space group operators:
 irot       det(A)        alpha          n_x          n_y          n_z        tau_x        tau_y        tau_z
    1     1.000000     0.000001     1.000000     0.000000     0.000000     0.000000     0.000000     0.000000
    2     1.000000   120.000000    -0.944534     0.000000    -0.328413     0.000000     0.000000     0.000000
    3     1.000000   120.000000     0.944534     0.000000     0.328413     0.000000     0.000000     0.000000
    4    -1.000000   180.000000    -0.284414    -0.500000     0.817990     0.499993     0.499991     0.499989
    5    -1.000000   179.999999    -0.000000     1.000000     0.000000     0.499989     0.499992     0.499992
    6    -1.000000   179.999999    -0.284414     0.500000     0.817991     0.499992     0.499988     0.499993

 Subroutine IBZKPT returns following result:

 Found     65 irreducible k-points:

 Following reciprocal coordinates:
            Coordinates               Weight
  0.000000  0.000000  0.000000      1.000000
  0.125000 -0.000000  0.000000      6.000000
  0.250000 -0.000000  0.000000      6.000000
  0.375000 -0.000000  0.000000      6.000000
  0.500000 -0.000000  0.000000      3.000000
  0.125000  0.125000  0.000000      6.000000
  0.250000  0.125000  0.000000     12.000000
  0.375000  0.125000  0.000000     12.000000
  0.500000  0.125000  0.000000     12.000000
 -0.375000  0.125000  0.000000     12.000000
 -0.250000  0.125000 -0.000000     12.000000
 -0.125000  0.125000 -0.000000      6.000000
  0.250000  0.250000  0.000000      6.000000
  0.375000  0.250000  0.000000     12.000000
  0.500000  0.250000  0.000000     12.000000
 -0.375000  0.250000 -0.000000     12.000000
 -0.250000  0.250000 -0.000000      6.000000
  0.375000  0.375000  0.000000      6.000000
  0.500000  0.375000  0.000000     12.000000
 -0.375000  0.375000  0.000000      6.000000
  0.500000  0.500000  0.000000      3.000000
  0.125000  0.125000  0.125000      2.000000
  0.250000  0.125000  0.125000      6.000000
  0.375000  0.125000  0.125000      6.000000
  0.500000  0.125000  0.125000      6.000000
 -0.375000  0.125000  0.125000      6.000000
 -0.250000  0.125000  0.125000      6.000000
 -0.125000  0.125000  0.125000      6.000000
  0.250000  0.250000  0.125000      6.000000
  0.375000  0.250000  0.125000     12.000000
  0.500000  0.250000  0.125000     12.000000
 -0.375000  0.250000  0.125000     12.000000
 -0.250000  0.250000  0.125000     12.000000
 -0.125000  0.250000  0.125000     12.000000
  0.375000  0.375000  0.125000      6.000000
  0.500000  0.375000  0.125000     12.000000
 -0.375000  0.375000  0.125000     12.000000
 -0.250000  0.375000  0.125000     12.000000
 -0.125000  0.375000  0.125000     12.000000
  0.500000  0.500000  0.125000      6.000000
 -0.375000  0.500000  0.125000     12.000000
 -0.250000  0.500000  0.125000     12.000000
 -0.125000  0.500000  0.125000      6.000000
 -0.375000 -0.375000  0.125000      6.000000
 -0.250000 -0.375000  0.125000     12.000000
 -0.250000 -0.250000  0.125000      6.000000
  0.250000  0.250000  0.250000      2.000000
  0.375000  0.250000  0.250000      6.000000
  0.500000  0.250000  0.250000      6.000000
 -0.375000  0.250000  0.250000      6.000000
 -0.250000  0.250000  0.250000      6.000000
  0.375000  0.375000  0.250000      6.000000
  0.500000  0.375000  0.250000     12.000000
 -0.375000  0.375000  0.250000     12.000000
 -0.250000  0.375000  0.250000     12.000000
  0.500000  0.500000  0.250000      6.000000
 -0.375000  0.500000  0.250000     12.000000
 -0.250000  0.500000  0.250000      6.000000
 -0.375000 -0.375000  0.250000      6.000000
  0.375000  0.375000  0.375000      2.000000
  0.500000  0.375000  0.375000      6.000000
 -0.375000  0.375000  0.375000      6.000000
  0.500000  0.500000  0.375000      6.000000
 -0.375000  0.500000  0.375000      6.000000
  0.500000  0.500000  0.500000      1.000000

 Following cartesian coordinates:
            Coordinates               Weight
  0.000000  0.000000  0.000000      1.000000
  0.012602 -0.022221 -0.009201      6.000000
  0.025203 -0.044443 -0.018403      6.000000
  0.037805 -0.066664 -0.027604      6.000000
  0.050406 -0.088886 -0.036806      3.000000
  0.025203  0.000000 -0.018403      6.000000
  0.037805 -0.022221 -0.027604     12.000000
  0.050406 -0.044443 -0.036806     12.000000
  0.063008 -0.066664 -0.046007     12.000000
 -0.025203  0.088886  0.018403     12.000000
 -0.012602  0.066664  0.009201     12.000000
 -0.000000  0.044443  0.000000      6.000000
  0.050406  0.000000 -0.036806      6.000000
  0.063008 -0.022221 -0.046007     12.000000
  0.075610 -0.044443 -0.055208     12.000000
 -0.012602  0.111107  0.009201     12.000000
 -0.000000  0.088886  0.000000      6.000000
  0.075610  0.000000 -0.055208      6.000000
  0.088211 -0.022221 -0.064410     12.000000
 -0.000000  0.133329  0.000000      6.000000
  0.100813  0.000000 -0.073611      3.000000
  0.025165  0.000000  0.008750      2.000000
  0.037766 -0.022221 -0.000452      6.000000
  0.050368 -0.044443 -0.009653      6.000000
  0.062969 -0.066664 -0.018855      6.000000
 -0.025242  0.088886  0.045555      6.000000
 -0.012640  0.066664  0.036354      6.000000
 -0.000039  0.044443  0.027152      6.000000
  0.050368  0.000000 -0.009653      6.000000
  0.062969 -0.022221 -0.018855     12.000000
  0.075571 -0.044443 -0.028056     12.000000
 -0.012640  0.111107  0.036354     12.000000
 -0.000039  0.088886  0.027152     12.000000
  0.012563  0.066664  0.017951     12.000000
  0.075571  0.000000 -0.028056      6.000000
  0.088172 -0.022221 -0.037257     12.000000
 -0.000039  0.133329  0.027152     12.000000
  0.012563  0.111107  0.017951     12.000000
  0.025165  0.088886  0.008750     12.000000
  0.100774  0.000000 -0.046459      6.000000
  0.012563  0.155550  0.017951     12.000000
  0.025165  0.133329  0.008750     12.000000
  0.037766  0.111107 -0.000452      6.000000
 -0.075648 -0.000000  0.082361      6.000000
 -0.063047 -0.022221  0.073159     12.000000
 -0.050445 -0.000000  0.063958      6.000000
  0.050329  0.000000  0.017499      2.000000
  0.062931 -0.022221  0.008298      6.000000
  0.075532 -0.044443 -0.000903      6.000000
 -0.012679  0.111107  0.063506      6.000000
 -0.000077  0.088886  0.054305      6.000000
  0.075532  0.000000 -0.000903      6.000000
  0.088134 -0.022221 -0.010105     12.000000
 -0.000077  0.133329  0.054305     12.000000
  0.012524  0.111107  0.045104     12.000000
  0.100735  0.000000 -0.019306      6.000000
  0.012524  0.155550  0.045104     12.000000
  0.025126  0.133329  0.035902      6.000000
 -0.075687 -0.000000  0.109513      6.000000
  0.075494 -0.000000  0.026249      2.000000
  0.088095 -0.022221  0.017048      6.000000
 -0.000116  0.133329  0.081457      6.000000
  0.100697  0.000000  0.007846      6.000000
  0.012486  0.155550  0.072256      6.000000
  0.100658  0.000000  0.034999      1.000000

 Subroutine IBZKPT_HF returns following result:

 Found    512 k-points in 1st BZ
 the following    512 k-points will be used (e.g. in the exchange kernel)
 Following reciprocal coordinates:   # in IRBZ
  0.000000  0.000000  0.000000    0.00195312   1 t-inv F
[...]

[...]

 eigenvalue-minimisations  : 14640
 total energy-change (2. order) :-0.1250672E+04  (-0.1197279E+04)
 number of electron      94.0000000 magnetization      -0.0000000
 augmentation part       94.0000000 magnetization      -0.0000000

[...]

 Broyden mixing:
  rms(total) = 0.46721E+01    rms(broyden)= 0.46719E+01
  rms(prec ) = 0.69979E+01
  weight for this iteration     100.00

[...]

 eigenvalues of (default mixing * dielectric matrix)
  average eigenvalue GAMMA=   0.7185
  0.7185

[...]

 eigenvalue-minimisations  : 22600
 total energy-change (2. order) :-0.1471144E-06  (-0.7443687E-06)
 number of electron      94.0000187 magnetization       0.0000000
 augmentation part       32.2510100 magnetization       0.0000000

 Broyden mixing:
  rms(total) = 0.57297E-03    rms(broyden)= 0.57285E-03
  rms(prec ) = 0.86160E-03
  weight for this iteration     100.00

 eigenvalues of (default mixing * dielectric matrix)
  average eigenvalue GAMMA=   1.1171
  2.9169  2.3962  1.4213  1.1668  1.1668  1.0438  0.8439  0.8439  0.3792  0.8330
  0.8330  0.5365  0.6288  0.6288

[...]

----------------------------------------- Iteration    1(  20)  ---------------------------------------

atom =   9  type =  3  l = 2

[...]

  o =  0.1456  v =  0.0000  0.0000  0.0000  0.0000  0.0000  0.7749 -0.4583  0.1463 -0.3038  0.2753      0.0000  0.0000  0.0000  0.0000  0.0000  0.0000  0.0000  0.0000  0.0000  0.0000
  o =  0.1456  v =  0.0000  0.0000  0.0000  0.0000  0.0000  0.1133  0.4203  0.8434  0.2427  0.2004      0.0000  0.0000  0.0000  0.0000  0.0000  0.0000  0.0000  0.0000  0.0000  0.0000
  o =  0.1611  v =  0.0000  0.0000  0.0000  0.0000  0.0000  0.0000  0.0000  0.3382 -0.5373 -0.7726      0.0000  0.0000  0.0000  0.0000  0.0000  0.0000  0.0000  0.0000  0.0000  0.0000
  o =  0.2935  v =  0.0000  0.0000  0.0000  0.0000  0.0000  0.1429 -0.4773  0.1172  0.7285 -0.4553      0.0000  0.0000  0.0000  0.0000  0.0000  0.0000  0.0000  0.0000  0.0000  0.0000
  o =  0.2935  v =  0.0000  0.0000  0.0000  0.0000  0.0000 -0.6052 -0.6208  0.3729 -0.1715  0.2825      0.0000  0.0000  0.0000  0.0000  0.0000  0.0000  0.0000  0.0000  0.0000  0.0000
  o =  0.9495  v =  0.0000 -0.0000 -0.3382  0.5373  0.7726  0.0000  0.0000  0.0000  0.0000  0.0000      0.0000  0.0000  0.0000  0.0000  0.0000  0.0000  0.0000  0.0000  0.0000  0.0000
  o =  0.9502  v = -0.7948  0.5704 -0.0521  0.1530 -0.1292  0.0000  0.0000  0.0000  0.0000  0.0000      0.0000  0.0000  0.0000  0.0000  0.0000  0.0000  0.0000  0.0000  0.0000  0.0000
  o =  0.9502  v =  0.0725  0.1939  0.9207  0.1938  0.2683  0.0000  0.0000  0.0000  0.0000  0.0000      0.0000  0.0000  0.0000  0.0000  0.0000  0.0000  0.0000  0.0000  0.0000  0.0000
  o =  0.9538  v =  0.0499 -0.2628  0.0400  0.7985 -0.5378  0.0000  0.0000  0.0000  0.0000  0.0000      0.0000  0.0000  0.0000  0.0000  0.0000  0.0000  0.0000  0.0000  0.0000  0.0000
  o =  0.9538  v = -0.6004 -0.7536  0.1834 -0.1128  0.1587  0.0000  0.0000  0.0000  0.0000  0.0000      0.0000  0.0000  0.0000  0.0000  0.0000  0.0000  0.0000  0.0000  0.0000  0.0000
atom =  10  type =  3  l = 2

 onsite density matrix

[...]

  0.9515  0.0016  0.0004 -0.0004  0.0004
  0.0016  0.9525  0.0005  0.0004 -0.0001
  0.0004  0.0005  0.9503  0.0002  0.0002
 -0.0004  0.0004  0.0002  0.9523 -0.0019
  0.0004 -0.0001  0.0002 -0.0019  0.9509

 occupancies and eigenvectors

  o =  0.1456  v =  0.3281 -0.6024  0.6268  0.3692  0.0176  0.0000  0.0000  0.0000  0.0000  0.0000      0.0000  0.0000  0.0000  0.0000  0.0000  0.0000  0.0000  0.0000  0.0000  0.0000
  o =  0.1456  v = -0.7111  0.1545  0.5831 -0.1220  0.3401  0.0000  0.0000  0.0000  0.0000  0.0000      0.0000  0.0000  0.0000  0.0000  0.0000  0.0000  0.0000  0.0000  0.0000  0.0000
  o =  0.1611  v = -0.0000 -0.0000 -0.3382  0.5373  0.7726  0.0000  0.0000  0.0000  0.0000  0.0000      0.0000  0.0000  0.0000  0.0000  0.0000  0.0000  0.0000  0.0000  0.0000  0.0000
  o =  0.2935  v = -0.5423 -0.7284 -0.3908 -0.0362 -0.1459  0.0000  0.0000  0.0000  0.0000  0.0000      0.0000  0.0000  0.0000  0.0000  0.0000  0.0000  0.0000  0.0000  0.0000  0.0000
  o =  0.2935  v =  0.3044 -0.2875 -0.0097 -0.7475  0.5156  0.0000  0.0000  0.0000  0.0000  0.0000      0.0000  0.0000  0.0000  0.0000  0.0000  0.0000  0.0000  0.0000  0.0000  0.0000
  o =  0.9495  v =  0.0000  0.0000  0.0000  0.0000  0.0000  0.0000 -0.0000 -0.3382  0.5373  0.7726      0.0000  0.0000  0.0000  0.0000  0.0000  0.0000  0.0000  0.0000  0.0000  0.0000
  o =  0.9502  v =  0.0000  0.0000  0.0000  0.0000  0.0000  0.3829 -0.0493 -0.8653 -0.1168 -0.2975      0.0000  0.0000  0.0000  0.0000  0.0000  0.0000  0.0000  0.0000  0.0000  0.0000
  o =  0.9502  v =  0.0000  0.0000  0.0000  0.0000  0.0000 -0.7003  0.6005 -0.3188 -0.2175  0.0117      0.0000  0.0000  0.0000  0.0000  0.0000  0.0000  0.0000  0.0000  0.0000  0.0000
  o =  0.9538  v =  0.0000  0.0000  0.0000  0.0000  0.0000  0.2921  0.0699  0.0388 -0.7744  0.5555      0.0000  0.0000  0.0000  0.0000  0.0000  0.0000  0.0000  0.0000  0.0000  0.0000
  o =  0.9538  v =  0.0000  0.0000  0.0000  0.0000  0.0000 -0.5269 -0.7951 -0.1837 -0.2252  0.0762      0.0000  0.0000  0.0000  0.0000  0.0000  0.0000  0.0000  0.0000  0.0000  0.0000

 eigenvalue-minimisations  : 14880
 total energy-change (2. order) : 0.7944436E-07  (-0.9150320E-07)
 number of electron      94.0000187 magnetization       0.0000000
 augmentation part       32.2510100 magnetization       0.0000000

 Free energy of the ion-electron system (eV)
  alpha Z        PSCENC =       399.57285301
  Ewald energy   TEWEN  =     -8257.58204845
  -Hartree energ DENC   =     -3019.65901070
  -exchange      EXHF   =         0.00000000
  -V(xc)+E(xc)   XCENC  =       410.66100517
  PAW double counting   =     10598.85005574   -10732.08676458
  entropy T*S    EENTRO =        -0.00000000
  eigenvalues    EBANDS =      -893.54066286
  atomic energy  EATOM  =     11427.38436067
  Solvation  Ediel_sol  =         0.00000000
  free energy    TOTEN  =       -66.40021199 eV

  energy without entropy =      -66.40021199  energy(sigma->0) =      -66.40021199

 average (electrostatic) potential at core
  the test charge radii are     1.0856  0.7215  0.9500
  (the norm of the test charge is              1.0000)
       1-104.3878       2-104.3873       3 -68.3614       4 -68.3612       5 -68.3617
       6 -68.3593       7 -68.3587       8 -68.3594       9 -78.0762      10 -78.0715

 E-fermi :   6.7018     XC(G=0): -11.2730     alpha+bet :-12.6747

[...]

 k-point     1 :       0.0000    0.0000    0.0000
  band No.  band energies     occupation
      1     -49.6898      1.00000
      2     -49.6550      1.00000
      3     -49.6550      1.00000
      4     -45.3730      1.00000
      5     -45.3397      1.00000
      6     -45.3397      1.00000
      7     -16.3359      1.00000
      8     -16.3359      1.00000
      9     -16.2586      1.00000
     10     -16.2586      1.00000
     11     -16.2531      1.00000
     12     -16.2193      1.00000
     13     -16.2192      1.00000
     14     -16.1955      1.00000
     15     -16.1785      1.00000
     16     -16.1785      1.00000
     17     -12.5853      1.00000
     18     -11.0085      1.00000
     19     -10.8942      1.00000
     20     -10.8939      1.00000
     21     -10.6058      1.00000
     22     -10.6055      1.00000
     23      -3.9399      1.00000
     24      -2.4194      1.00000
     25       0.2355      1.00000
     26       0.3048      1.00000
     27       0.3048      1.00000
     28       1.2706      1.00000
     29       1.2959      1.00000
     30       1.2960      1.00000
     31       1.5234      1.00000
     32       1.6738      1.00000
     33       1.6739      1.00000
     34       3.3260      1.00000
     35       3.3660      1.00000
     36       3.3660      1.00000
     37       3.8039      1.00000
     38       3.8040      1.00000
     39       4.5669      1.00000
     40       4.5671      1.00000
     41       4.5771      1.00000
     42       4.9351      1.00000
     43       4.9352      1.00000
     44       5.0199      1.00000
     45       5.4001      1.00000
     46       5.7961      1.00000
     47       5.7961      1.00000
     48       7.4168      0.00000
     49       7.4168      0.00000
     50       7.4275      0.00000
     51       9.2728      0.00000
     52       9.2729      0.00000
     53      11.0664      0.00000
     54      11.0665      0.00000
     55      11.6263      0.00000
     56      11.9543      0.00000

[...]

 spin component 2

[...]

 k-point    65 :       0.5000    0.5000    0.5000
  band No.  band energies     occupation
      1     -49.6848      1.00000
      2     -49.6504      1.00000
      3     -49.6504      1.00000
      4     -45.3779      1.00000
      5     -45.3444      1.00000
      6     -45.3444      1.00000
      7     -16.2794      1.00000
      8     -16.2793      1.00000
      9     -16.2761      1.00000
     10     -16.2761      1.00000
     11     -16.2256      1.00000
     12     -16.2221      1.00000
     13     -16.2160      1.00000
     14     -16.2159      1.00000
     15     -16.2143      1.00000
     16     -16.2142      1.00000
     17     -11.9127      1.00000
     18     -11.8135      1.00000
     19     -10.8318      1.00000
     20     -10.8315      1.00000
     21     -10.7171      1.00000
     22     -10.7169      1.00000
     23      -3.5214      1.00000
     24      -3.4965      1.00000
     25       0.9910      1.00000
     26       0.9911      1.00000
     27       1.2022      1.00000
     28       1.3032      1.00000
     29       1.3846      1.00000
     30       1.3847      1.00000
     31       1.8822      1.00000
     32       1.8823      1.00000
     33       2.7473      1.00000
     34       2.7474      1.00000
     35       2.7743      1.00000
     36       3.3852      1.00000
     37       3.7860      1.00000
     38       3.7861      1.00000
     39       3.8715      1.00000
     40       4.0745      1.00000
     41       4.0746      1.00000
     42       4.4156      1.00000
     43       4.4157      1.00000
     44       5.2724      1.00000
     45       5.8218      1.00000
     46       6.3354      1.00000
     47       6.3355      1.00000
     48       7.4021      0.00000
     49       7.5245      0.00000
     50       7.5246      0.00000
     51       8.8612      0.00000
     52       8.8612      0.00000
     53       9.4962      0.00000
     54       9.6451      0.00000
     55      11.3314      0.00000
     56      11.3315      0.00000

 soft charge-density along one line, spin component           1
         0         1         2         3         4         5         6         7         8         9
 total charge-density along one line

 soft charge-density along one line, spin component           2
         0         1         2         3         4         5         6         7         8         9
 total charge-density along one line

------------------------ aborting loop because EDIFF is reached ----------------------------------------

            Ionic dipole moment: p[ion]=(  -103.90593     0.00022   -36.12802 ) electrons Angst

    Spin resolved dipole moment: p[sp1]=(     1.66547    -0.00005     0.57909 ) electrons Angst
                                 p[sp2]=(    -4.98163     0.00025    -1.73255 ) electrons Angst

 Total electronic dipole moment: p[elc]=(    -3.31616     0.00019    -1.15347 ) electrons Angst

 total charge

# of ion     s       p       d       tot
  1        1.648   0.837  10.016  12.501
  2        1.648   0.837  10.016  12.501
  3        1.575   3.455   0.000   5.030
  4        1.574   3.389   0.000   4.963
  5        1.576   3.343   0.000   4.919
  6        1.574   3.426   0.000   5.000
  7        1.576   3.343   0.000   4.919
  8        1.575   3.412   0.000   4.988
  9        0.277   6.323   5.775  12.374
 10        0.276   6.323   5.775  12.374
tot       13.302  34.687  31.582  79.570

 magnetization (x)

[...]

  FORCE on cell =-STRESS in cart. coord.  units (eV):
  Direction    XX          YY          ZZ          XY          YZ          ZX
  Alpha Z   399.57285   399.57285   399.57285
  Ewald   -2784.04031 -2733.73875 -2739.81711    -0.00044    -0.00529   -17.49133
  Hartree   982.56698  1020.86665  1016.23746    -0.00209    -0.00231   -13.31697
  E(xc)    -506.43379  -506.27438  -506.29367     0.00002     0.00000    -0.05542
  Local     -33.20463  -124.44437  -113.41878     0.00508     0.00589    31.72548
  n-local     7.14588     3.58114     5.15174     0.56001    -0.69365     1.34907
  augment   590.79997   593.01994   592.75173    -0.00071     0.00024    -0.77180
  Kinetic  1343.82740  1345.32415  1344.05006    -0.84758     2.65844    -3.35659
  Fock        0.00000     0.00000     0.00000     0.00000     0.00000     0.00000
  Total      -1.17729    -1.22639    -1.22046    -0.00000     0.00000     0.01707
  in kB     -14.67071   -15.28254   -15.20857    -0.00000     0.00000     0.21273

 VOLUME and BASIS-vectors are now :
  energy-cutoff  :      520.00
  volume of cell :      128.57
      direct lattice vectors                 reciprocal lattice vectors
     4.964848044 -2.812597126  0.007059803     0.100812702 -0.177771615 -0.073611191
     4.964847832  2.812597498  0.007060412     0.100812689  0.177771639 -0.073611152
     3.364962140 -0.000000372  4.608416033    -0.000308891 -0.000000024  0.217219843

  length of vectors
     5.706178102  5.706178102  5.706178102     0.217220062  0.217220062  0.217220062

 FORCES acting on ions
    electron-ion (+dipol)            ewald-force                    non-local-force                 convergence-correction
   0.221E+03 0.862E-02 0.767E+02   -.230E+03 -.819E-03 -.801E+02   0.992E+01 0.594E-15 0.345E+01   0.125E-03 -.388E-05 0.455E-04
   0.221E+03 -.317E-02 0.767E+02   -.230E+03 -.793E-02 -.801E+02   0.992E+01 0.609E-15 0.345E+01   0.221E-03 0.117E-04 0.723E-04
   -.312E+02 -.492E+02 -.274E+02   0.360E+02 0.507E+02 0.287E+02   -.500E+01 -.139E+01 -.134E+01   -.363E-03 -.217E-03 0.279E-03
   -.529E+02 0.111E+02 0.350E+02   0.580E+02 -.121E+02 -.344E+02   -.521E+01 0.102E+01 -.731E+00   -.230E-03 0.441E-03 -.860E-04
   -.249E+02 0.381E+02 -.455E+02   0.291E+02 -.386E+02 0.485E+02   -.442E+01 0.375E+00 -.301E+01   -.109E-03 -.222E-03 -.438E-03
   -.528E+02 -.110E+02 0.351E+02   0.579E+02 0.121E+02 -.344E+02   -.521E+01 -.102E+01 -.731E+00   -.194E-03 -.483E-03 -.593E-04
   -.249E+02 -.382E+02 -.454E+02   0.291E+02 0.386E+02 0.485E+02   -.442E+01 -.375E+00 -.301E+01   -.518E-04 0.229E-03 -.468E-03
   -.311E+02 0.492E+02 -.275E+02   0.360E+02 -.507E+02 0.287E+02   -.500E+01 0.139E+01 -.134E+01   -.328E-03 0.250E-03 0.329E-03
   -.105E+03 0.109E-02 -.366E+02   0.107E+03 0.144E-02 0.373E+02   -.189E+01 -.126E-15 -.657E+00   -.427E-03 -.670E-05 -.150E-03
   -.105E+03 0.494E-02 -.365E+02   0.107E+03 0.232E-03 0.374E+02   -.189E+01 -.127E-15 -.657E+00   -.588E-03 -.261E-05 -.201E-03
   0.132E+02 0.529E-01 0.456E+01   0.000E+00 0.115E-13 0.853E-13   -.132E+02 -.697E-15 -.458E+01   -.194E-02 -.327E-05 -.675E-03

 POSITION                                       TOTAL-FORCE (eV/Angst)
      6.62073     -0.00000      2.30202         0.068808      0.000000      0.023924
     13.26818      0.00001      4.61333         0.068808      0.000000      0.023924
      6.67286     -1.27602      0.15589        -0.134110      0.102973     -0.075986
      5.30291     -1.13235      4.09591        -0.118482     -0.075499     -0.120932
      6.02876      2.40835      2.00837        -0.177056     -0.027474      0.047529
      8.58529      1.13223      1.79872        -0.118482      0.075499     -0.120932
      7.71125      0.40432      4.31251        -0.177056      0.027474      0.047529
      8.35530     -1.53657      2.46019        -0.134110     -0.102973     -0.075986
      9.55522     -0.00000      3.32233         0.360840      0.000000      0.125464
      2.90785     -0.00000      1.01106         0.360840      0.000000      0.125464
    total drift:                                0.005478      0.052887     -0.022959

  FREE ENERGIE OF THE ION-ELECTRON SYSTEM (eV)
  free  energy   TOTEN  =       -66.40021199 eV

  energy  without entropy=      -66.40021199  energy(sigma->0) =      -66.40021199

 total charge

[...]

 magnetization (x)

# of ion     s       p       d       tot
  1        0.001  -0.003   0.001  -0.001
  2       -0.001   0.003  -0.001   0.001
  3        0.002   0.049   0.000   0.051
  4        0.002   0.055   0.000   0.056
  5       -0.000   0.068   0.000   0.068
  6       -0.001  -0.063   0.000  -0.064
  7       -0.002  -0.057   0.000  -0.059
  8       -0.001  -0.053   0.000  -0.055
  9        0.010   0.016   3.718   3.744
 10       -0.010  -0.016  -3.717  -3.742
tot       -0.000  -0.001   0.001   0.000