 vasp.5.4.1 24Jun15 (build Jul 08 2015 18:11:14) complex

 executed on           IFC91_ompi date 2017.02.23  04:14:18

 INCAR:
 POTCAR:    PAW Bi_d 09Feb1998
 POTCAR:    PAW O 22Mar2012
 POTCAR:    PAW Fe_pv 02Aug2007
 POTCAR:    PAW Bi_d 09Feb1998
   VRHFIN =Bi:

   TITEL  = PAW Bi_d 09Feb1998
   POMASS =  208.980; ZVAL   =   15.000    mass and valenz
   ENMAX  =  242.856; ENMIN  =  182.142 eV

 POTCAR:    PAW O 22Mar2012
   VRHFIN =O: s2p4

   TITEL  = PAW O 22Mar2012
   POMASS =   16.000; ZVAL   =    6.000    mass and valenz
   ENMAX  =  400.000; ENMIN  =  300.000 eV

 POTCAR:    PAW Fe_pv 02Aug2007
   VRHFIN =Fe:  d7 s1

   TITEL  = PAW Fe_pv 02Aug2007
   POMASS =   55.847; ZVAL   =   14.000    mass and valenz
   ENMAX  =  293.303; ENMIN  =  219.977 eV

  PAW Bi_d 09Feb1998                    :
  PAW O 22Mar2012                       :
  PAW Fe_pv 02Aug2007                   :

 POSCAR: Reproduced from the Neaton et al paper
  positions in direct lattice
  velocities in cartesian coordinates
 exchange correlation table for  LEXCH =        2
   RHO(1)=    0.500       N(1)  =     2000
   RHO(2)=  100.500       N(2)  =     4000

 ion  position               nearest neighbor table
   1  0.001  0.001  0.001-   7 2.31   8 2.31   6 2.31   5 2.42   3 2.42   4 2.42   9 3.07  10 3.28
                            10 3.28  10 3.28   2 3.89   2 3.89   2 3.89   2 3.89   2 3.89   2 3.89
   2  0.501  0.501  0.501-   4 2.31   3 2.31   5 2.31   6 2.42   8 2.42   7 2.42  10 3.07   9 3.28
                             9 3.28   9 3.28   1 3.89   1 3.89   1 3.89   1 3.89   1 3.89   1 3.89
   3  0.541  0.943  0.397-   9 1.94  10 2.07   2 2.31   1 2.42
   4  0.397  0.541  0.943-   9 1.94  10 2.07   2 2.31   1 2.42
   5  0.943  0.397  0.541-   9 1.94  10 2.07   2 2.31   1 2.42
   6  0.443  0.041  0.897-  10 1.94   9 2.07   1 2.31   2 2.42
   7  0.041  0.897  0.443-  10 1.94   9 2.07   1 2.31   2 2.42
   8  0.897  0.443  0.041-  10 1.94   9 2.07   1 2.31   2 2.42
   9  0.227  0.227  0.227-   4 1.94   3 1.94   5 1.94   7 2.07   8 2.07   6 2.07   1 3.07   2 3.28
                             2 3.28   2 3.28
  10  0.727  0.727  0.727-   8 1.94   7 1.94   6 1.94   3 2.07   4 2.07   5 2.07   2 3.07   1 3.28
                             1 3.28   1 3.28

  LATTYP: Found a trigonal (rhomboedric) cell.
 ALAT       =     5.5156662821
 COS(alpha) =     0.5026667582

  Lattice vectors:

 A1 = (   5.5156575433,   0.0080168565,   0.0056683453)
 A2 = (   2.7656043829,   4.7722085875,   0.0056683453)
 A3 = (   2.7656043829,   1.5964007125,   4.4972782545)

Analysis of symmetry for initial positions (statically):
 Subroutine PRICEL returns:
 Original cell was already a primitive cell.

 Routine SETGRP: Setting up the symmetry group for a
 trigonal (rhombohedral) supercell.

 Subroutine GETGRP returns: Found  3 space group operations
 (whereof  3 operations were pure point group operations)
 out of a pool of 12 trial point group operations.

The static configuration has the point symmetry C_3 .

Analysis of symmetry for dynamics (positions and initial velocities):
 Subroutine PRICEL returns:
 Original cell was already a primitive cell.

 Routine SETGRP: Setting up the symmetry group for a
 trigonal (rhombohedral) supercell.

 Subroutine GETGRP returns: Found  3 space group operations
 (whereof  3 operations were pure point group operations)
 out of a pool of 12 trial point group operations.

The dynamic configuration has the point symmetry C_3 .

Analysis of magnetic symmetry:
 Subroutine PRICEL returns:
 Original cell was already a primitive cell.

 Subroutine MAGSYM returns: Found  3 space group operations
 (whereof  3 operations were pure point group operations)
 out of a pool of  3 trial space group operations
 (whereof  3 operations were pure point group operations)
 and found also     1 'primitive' translations

The magnetic configuration has the point symmetry C_3 .

 KPOINTS: Gamma centred mesh

Automatic generation of k-mesh.
Space group operators:
 irot       det(A)        alpha          n_x          n_y          n_z        tau_x        tau_y        tau_z
    1     1.000000     0.000001     1.000000     0.000000     0.000000     0.000000     0.000000     0.000000
    2     1.000000   120.000000    -0.816558    -0.471345    -0.333266     0.000000     0.000000     0.000000
    3     1.000000   120.000000     0.816558     0.471345     0.333266     0.000000     0.000000     0.000000

 Subroutine IBZKPT returns following result:

 Found     90 irreducible k-points:

 Following reciprocal coordinates:
            Coordinates               Weight
  0.000000  0.000000  0.000000      1.000000
  0.125000  0.000000  0.000000      6.000000
  0.250000  0.000000  0.000000      6.000000
  0.375000  0.000000  0.000000      6.000000
  0.500000  0.000000  0.000000      3.000000
  0.125000  0.125000  0.000000      6.000000
  0.250000  0.125000  0.000000      6.000000
  0.375000  0.125000  0.000000      6.000000
  0.500000  0.125000  0.000000      6.000000
 -0.375000  0.125000 -0.000000      6.000000
 -0.250000  0.125000 -0.000000      6.000000
 -0.125000  0.125000 -0.000000      6.000000
  0.125000  0.250000  0.000000      6.000000
  0.250000  0.250000  0.000000      6.000000
  0.375000  0.250000  0.000000      6.000000
  0.500000  0.250000  0.000000      6.000000
 -0.375000  0.250000 -0.000000      6.000000
 -0.250000  0.250000 -0.000000      6.000000
 -0.125000  0.250000  0.000000      6.000000
  0.125000  0.375000  0.000000      6.000000
  0.250000  0.375000  0.000000      6.000000
  0.375000  0.375000  0.000000      6.000000
  0.500000  0.375000  0.000000      6.000000
 -0.375000  0.375000  0.000000      6.000000
 -0.250000  0.375000  0.000000      6.000000
 -0.125000  0.375000  0.000000      6.000000
  0.125000  0.500000  0.000000      6.000000
  0.250000  0.500000  0.000000      6.000000
  0.375000  0.500000  0.000000      6.000000
  0.500000  0.500000  0.000000      3.000000
  0.125000  0.125000  0.125000      2.000000
  0.250000  0.125000  0.125000      6.000000
  0.375000  0.125000  0.125000      6.000000
  0.500000  0.125000  0.125000      6.000000
 -0.375000  0.125000  0.125000      6.000000
 -0.250000  0.125000  0.125000      6.000000
 -0.125000  0.125000  0.125000      6.000000
  0.250000  0.250000  0.125000      6.000000
  0.375000  0.250000  0.125000      6.000000
  0.500000  0.250000  0.125000      6.000000
 -0.375000  0.250000  0.125000      6.000000
 -0.250000  0.250000  0.125000      6.000000
 -0.125000  0.250000  0.125000      6.000000
  0.250000  0.375000  0.125000      6.000000
  0.375000  0.375000  0.125000      6.000000
  0.500000  0.375000  0.125000      6.000000
 -0.375000  0.375000  0.125000      6.000000
 -0.250000  0.375000  0.125000      6.000000
 -0.125000  0.375000  0.125000      6.000000
  0.250000  0.500000  0.125000      6.000000
  0.375000  0.500000  0.125000      6.000000
  0.500000  0.500000  0.125000      6.000000
 -0.375000  0.500000  0.125000      6.000000
 -0.250000  0.500000  0.125000      6.000000
 -0.125000  0.500000  0.125000      6.000000
  0.250000 -0.375000  0.125000      6.000000
  0.375000 -0.375000  0.125000      6.000000
  0.500000 -0.375000  0.125000      6.000000
 -0.375000 -0.375000  0.125000      6.000000
 -0.250000 -0.375000  0.125000      6.000000
[...]
 -0.250000  0.375000  0.250000      6.000000
  0.375000  0.500000  0.250000      6.000000
  0.500000  0.500000  0.250000      6.000000
 -0.375000  0.500000  0.250000      6.000000
 -0.250000  0.500000  0.250000      6.000000
  0.375000 -0.375000  0.250000      6.000000
  0.500000 -0.375000  0.250000      6.000000
 -0.375000 -0.375000  0.250000      6.000000
 -0.250000 -0.375000  0.250000      6.000000
  0.375000  0.375000  0.375000      2.000000
  0.500000  0.375000  0.375000      6.000000
 -0.375000  0.375000  0.375000      6.000000
  0.500000  0.500000  0.375000      6.000000
 -0.375000  0.500000  0.375000      6.000000
  0.500000  0.500000  0.500000      1.000000

 Following cartesian coordinates:
            Coordinates               Weight
  0.000000  0.000000  0.000000      1.000000
  0.022691 -0.013139 -0.009290      6.000000
  0.045383 -0.026278 -0.018580      6.000000
  0.068074 -0.039417 -0.027870      6.000000
  0.090766 -0.052557 -0.037160      3.000000
  0.022663  0.013082 -0.018580      6.000000
  0.045354 -0.000057 -0.027870      6.000000
  0.068046 -0.013197 -0.037160      6.000000
  0.090737 -0.026336 -0.046450      6.000000
 -0.068103  0.065638  0.018580      6.000000
 -0.045411  0.052499  0.009290      6.000000
 -0.022720  0.039360 -0.000000      6.000000
  0.022634  0.039303 -0.027870      6.000000
  0.045326  0.026164 -0.037160      6.000000
  0.068017  0.013024 -0.046450      6.000000
  0.090708 -0.000115 -0.055740      6.000000
 -0.068131  0.091859  0.009290      6.000000
 -0.045440  0.078720 -0.000000      6.000000
 -0.022749  0.065581 -0.009290      6.000000
  0.022606  0.065524 -0.037160      6.000000
  0.045297  0.052384 -0.046450      6.000000
  0.067989  0.039245 -0.055740      6.000000
  0.090680  0.026106 -0.065031      6.000000
 -0.068160  0.118080 -0.000000      6.000000
 -0.045468  0.104941 -0.009290      6.000000
 -0.022777  0.091802 -0.018580      6.000000
  0.022577  0.091744 -0.046450      6.000000
  0.045269  0.078605 -0.055740      6.000000
  0.067960  0.065466 -0.065031      6.000000
  0.090651  0.052327 -0.074321      3.000000
  0.022634  0.013065  0.009238      2.000000
  0.045326 -0.000074 -0.000052      6.000000
  0.068017 -0.013213 -0.009342      6.000000
  0.090708 -0.026352 -0.018632      6.000000
 -0.068131  0.065622  0.046398      6.000000
 -0.045440  0.052483  0.037108      6.000000
 -0.022749  0.039344  0.027818      6.000000
  0.045297  0.026147 -0.009342      6.000000
  0.067989  0.013008 -0.018632      6.000000
  0.090680 -0.000131 -0.027922      6.000000
 -0.068160  0.091843  0.037108      6.000000
 -0.045468  0.078704  0.027818      6.000000
 -0.022777  0.065564  0.018528      6.000000
  0.045269  0.052368 -0.018632      6.000000
  0.067960  0.039229 -0.027922      6.000000
  0.090651  0.026090 -0.037213      6.000000
 -0.068188  0.118064  0.027818      6.000000
 -0.045497  0.104925  0.018528      6.000000
 -0.022806  0.091785  0.009238      6.000000
  0.045240  0.078589 -0.027922      6.000000
  0.067931  0.065450 -0.037213      6.000000
  0.090623  0.052311 -0.046503      6.000000
 -0.068217  0.144285  0.018528      6.000000
 -0.045526  0.131145  0.009238      6.000000
 -0.022834  0.118006 -0.000052      6.000000
  0.045440 -0.104958  0.037108      6.000000
  0.068131 -0.118097  0.027818      6.000000
  0.090823 -0.131236  0.018528      6.000000
 -0.068017 -0.039262  0.083558      6.000000
 -0.045326 -0.052401  0.074268      6.000000
[...]
 -0.045526  0.104908  0.046346      6.000000
  0.067903  0.065433 -0.009395      6.000000
  0.090594  0.052294 -0.018685      6.000000
 -0.068246  0.144268  0.046346      6.000000
 -0.045554  0.131129  0.037056      6.000000
  0.068103 -0.118113  0.055636      6.000000
  0.090794 -0.131252  0.046346      6.000000
 -0.068046 -0.039278  0.111377      6.000000
 -0.045354 -0.052417  0.102086      6.000000
[...]

  energy without entropy =     1371.59512135  energy(sigma->0) =     1371.59466788

[...]

 eigenvalue-minimisations  : 20536
 total energy-change (2. order) :-0.1220352E+04  (-0.1186266E+04)
 number of electron      93.9999909 magnetization      -0.0000000
 augmentation part       93.9999909 magnetization      -0.0000000

[...]

 Broyden mixing:
  rms(total) = 0.64987E-02    rms(broyden)= 0.64964E-02
  rms(prec ) = 0.78565E-02
  weight for this iteration     100.00

[...]

 eigenvalues of (default mixing * dielectric matrix)
  average eigenvalue GAMMA=   0.3283
  0.3283

[...]

 eigenvalue-minimisations  : 25856
 total energy-change (2. order) :-0.4182621E-05  (-0.8706849E-05)
 number of electron      93.9999909 magnetization       0.0000000
 augmentation part       32.2139183 magnetization      -0.0000045

[...]

 Broyden mixing:
  rms(total) = 0.66184E-03    rms(broyden)= 0.66183E-03
  rms(prec ) = 0.75779E-03
  weight for this iteration     100.00

 eigenvalues of (default mixing * dielectric matrix)
  average eigenvalue GAMMA=   0.8257
  1.3947  1.3947  0.6276  0.6276  0.4548  0.4548

[...]

----------------------------------------- Iteration    1(  12)  ---------------------------------------

atom =   9  type =  3  l = 2

[...]

  o =  0.1190  v =  0.0000  0.0000  0.0000  0.0000  0.0000 -0.1650  0.2525  0.2254 -0.4253  0.8230      0.0000  0.0000  0.0000  0.0000  0.0000  0.0000  0.0000  0.0000  0.0000  0.0000
  o =  0.1190  v =  0.0000  0.0000  0.0000  0.0000  0.0000  0.1540 -0.2389  0.8469  0.4385  0.0988      0.0000  0.0000  0.0000  0.0000  0.0000  0.0000  0.0000  0.0000  0.0000  0.0000
  o =  0.1251  v =  0.0000  0.0000  0.0000  0.0000  0.0000  0.6666  0.2721 -0.3334  0.4713  0.3850      0.0000  0.0000  0.0000  0.0000  0.0000  0.0000  0.0000  0.0000  0.0000  0.0000
  o =  0.2880  v =  0.0000  0.0000  0.0000  0.0000  0.0000 -0.5524 -0.4442 -0.3276  0.5004  0.3739      0.0000  0.0000  0.0000  0.0000  0.0000  0.0000  0.0000  0.0000  0.0000  0.0000
  o =  0.2880  v =  0.0000  0.0000  0.0000  0.0000  0.0000  0.4467 -0.7796 -0.1162 -0.3927  0.1577      0.0000  0.0000  0.0000  0.0000  0.0000  0.0000  0.0000  0.0000  0.0000  0.0000
  o =  0.9595  v = -0.6666 -0.2721  0.3334 -0.4713 -0.3850  0.0000  0.0000  0.0000  0.0000  0.0000      0.0000  0.0000  0.0000  0.0000  0.0000  0.0000  0.0000  0.0000  0.0000  0.0000
  o =  0.9603  v =  0.1783 -0.2853 -0.2877  0.3746 -0.8147  0.0000  0.0000  0.0000  0.0000  0.0000      0.0000  0.0000  0.0000  0.0000  0.0000  0.0000  0.0000  0.0000  0.0000  0.0000
  o =  0.9603  v = -0.1995  0.2317 -0.8481 -0.4320 -0.0240  0.0000  0.0000  0.0000  0.0000  0.0000      0.0000  0.0000  0.0000  0.0000  0.0000  0.0000  0.0000  0.0000  0.0000  0.0000
  o =  0.9938  v =  0.5665  0.4128  0.2693 -0.5485 -0.3679  0.0000  0.0000  0.0000  0.0000  0.0000      0.0000  0.0000  0.0000  0.0000  0.0000  0.0000  0.0000  0.0000  0.0000  0.0000
  o =  0.9938  v = -0.4039  0.7877  0.1193  0.3874 -0.2283  0.0000  0.0000  0.0000  0.0000  0.0000      0.0000  0.0000  0.0000  0.0000  0.0000  0.0000  0.0000  0.0000  0.0000  0.0000
atom =  10  type =  3  l = 2

 onsite density matrix

[...]

  0.9653  0.0014 -0.0017 -0.0121  0.0021
  0.0014  0.9759 -0.0063 -0.0037 -0.0150
 -0.0017 -0.0063  0.9631  0.0044  0.0052
 -0.0121 -0.0037  0.0044  0.9860 -0.0052
  0.0021 -0.0150  0.0052 -0.0052  0.9773

 occupancies and eigenvectors

  o =  0.1190  v =  0.6074 -0.1121  0.6758  0.0121 -0.4020  0.0000  0.0000  0.0000  0.0000  0.0000      0.0000  0.0000  0.0000  0.0000  0.0000  0.0000  0.0000  0.0000  0.0000  0.0000
  o =  0.1190  v =  0.2344 -0.6937 -0.5579 -0.0066 -0.3906  0.0000  0.0000  0.0000  0.0000  0.0000      0.0000  0.0000  0.0000  0.0000  0.0000  0.0000  0.0000  0.0000  0.0000  0.0000
  o =  0.1251  v =  0.6666  0.2721 -0.3334  0.4713  0.3850  0.0000  0.0000  0.0000  0.0000  0.0000      0.0000  0.0000  0.0000  0.0000  0.0000  0.0000  0.0000  0.0000  0.0000  0.0000
  o =  0.2880  v =  0.0028  0.6442 -0.3107 -0.0250 -0.6984  0.0000  0.0000  0.0000  0.0000  0.0000      0.0000  0.0000  0.0000  0.0000  0.0000  0.0000  0.0000  0.0000  0.0000  0.0000
  o =  0.2880  v = -0.3629 -0.1309  0.1560  0.8815 -0.2231  0.0000  0.0000  0.0000  0.0000  0.0000      0.0000  0.0000  0.0000  0.0000  0.0000  0.0000  0.0000  0.0000  0.0000  0.0000
  o =  0.9595  v =  0.0000  0.0000  0.0000  0.0000  0.0000 -0.6666 -0.2721  0.3335 -0.4713 -0.3851      0.0000  0.0000  0.0000  0.0000  0.0000  0.0000  0.0000  0.0000  0.0000  0.0000
  o =  0.9603  v =  0.0000  0.0000  0.0000  0.0000  0.0000  0.5758 -0.1057  0.7188  0.0579 -0.3705      0.0000  0.0000  0.0000  0.0000  0.0000  0.0000  0.0000  0.0000  0.0000  0.0000
  o =  0.9603  v =  0.0000  0.0000  0.0000  0.0000  0.0000 -0.2514  0.6686  0.5342 -0.0213  0.4515      0.0000  0.0000  0.0000  0.0000  0.0000  0.0000  0.0000  0.0000  0.0000  0.0000
  o =  0.9938  v =  0.0000  0.0000  0.0000  0.0000  0.0000 -0.0119 -0.6767  0.2618  0.0311  0.6873      0.0000  0.0000  0.0000  0.0000  0.0000  0.0000  0.0000  0.0000  0.0000  0.0000
  o =  0.9938  v =  0.0000  0.0000  0.0000  0.0000  0.0000 -0.4009 -0.0987  0.1351  0.8792 -0.1954      0.0000  0.0000  0.0000  0.0000  0.0000  0.0000  0.0000  0.0000  0.0000  0.0000

 eigenvalue-minimisations  : 12992
 total energy-change (2. order) : 0.3298555E-07  (-0.8258436E-08)
 number of electron      93.9999909 magnetization       0.0000000
 augmentation part       32.2134775 magnetization      -0.0000011

 Free energy of the ion-electron system (eV)
  alpha Z        PSCENC =       426.33322837
  Ewald energy   TEWEN  =     -8533.09069633
  -Hartree energ DENC   =     -2843.11273419
  -exchange      EXHF   =         0.00000000
  -V(xc)+E(xc)   XCENC  =       419.03642152
  PAW double counting   =     10946.27320524   -11085.17653583
  entropy T*S    EENTRO =        -0.00000000
  eigenvalues    EBANDS =      -838.38052791
  atomic energy  EATOM  =     11436.88025691
  Solvation  Ediel_sol  =         0.00000000
  free energy    TOTEN  =       -71.23738222 eV

  energy without entropy =      -71.23738222  energy(sigma->0) =      -71.23738222

 average (electrostatic) potential at core
  the test charge radii are     1.0856  0.7215  0.9500
  (the norm of the test charge is              1.0000)
       1-103.3827       2-103.3832       3 -68.4494       4 -68.4494       5 -68.4494
       6 -68.4494       7 -68.4494       8 -68.4494       9 -78.1665      10 -78.1665

 E-fermi :   7.2626     XC(G=0): -12.2569     alpha+bet :-13.7899

[...]

 k-point     1 :       0.0000    0.0000    0.0000
  band No.  band energies     occupation
      1     -48.7590      1.00000
      2     -48.7038      1.00000
      3     -48.7038      1.00000
      4     -44.5554      1.00000
      5     -44.5091      1.00000
      6     -44.5091      1.00000
      7     -15.3971      1.00000
      8     -15.3971      1.00000
      9     -15.3086      1.00000
     10     -15.2920      1.00000
     11     -15.2920      1.00000
     12     -15.2275      1.00000
     13     -15.2275      1.00000
     14     -15.2170      1.00000
     15     -15.1796      1.00000
     16     -15.1796      1.00000
     17     -12.1019      1.00000
     18     -10.0343      1.00000
     19     -10.0125      1.00000
     20     -10.0125      1.00000
     21      -9.6800      1.00000
     22      -9.6800      1.00000
     23      -3.2790      1.00000
     24      -1.4637      1.00000
     25       0.2182      1.00000
     26       0.2182      1.00000
     27       0.4811      1.00000
     28       0.9365      1.00000
     29       0.9365      1.00000
     30       1.1053      1.00000
     31       1.7318      1.00000
     32       1.7568      1.00000
     33       1.7568      1.00000
     34       3.0228      1.00000
     35       3.0228      1.00000
     36       3.1136      1.00000
     37       4.4232      1.00000
     38       4.4232      1.00000
     39       5.2008      1.00000
     40       5.2008      1.00000
     41       5.3014      1.00000
     42       5.6277      1.00000
     43       5.6277      1.00000
     44       5.7457      1.00000
     45       6.1071      1.00000
     46       6.2050      1.00000
     47       6.2050      1.00000
     48       8.7244      0.00000
     49       8.7244      0.00000
     50       8.7394      0.00000
     51      10.5184      0.00000
     52      10.5184      0.00000
     53      12.3468      0.00000
     54      12.3468      0.00000
     55      12.9204      0.00000
     56      12.9739      0.00000

[...]

 spin component 2

[...]

 k-point    90 :       0.5000    0.5000    0.5000
  band No.  band energies     occupation
      1     -48.7590      1.00000
      2     -48.7038      1.00000
      3     -48.7038      1.00000
      4     -44.5554      1.00000
      5     -44.5091      1.00000
      6     -44.5091      1.00000
      7     -15.3163      1.00000
      8     -15.3163      1.00000
      9     -15.3132      1.00000
     10     -15.3132      1.00000
     11     -15.2634      1.00000
     12     -15.2620      1.00000
     13     -15.2277      1.00000
     14     -15.2277      1.00000
     15     -15.2262      1.00000
     16     -15.2262      1.00000
     17     -11.2147      1.00000
     18     -11.1373      1.00000
     19      -9.9529      1.00000
     20      -9.9529      1.00000
     21      -9.8258      1.00000
     22      -9.8258      1.00000
     23      -2.9106      1.00000
     24      -2.8590      1.00000
     25       0.6601      1.00000
     26       0.6601      1.00000
     27       1.1839      1.00000
     28       1.1839      1.00000
     29       1.2604      1.00000
     30       1.7915      1.00000
     31       1.9553      1.00000
     32       1.9553      1.00000
     33       2.6648      1.00000
     34       3.1756      1.00000
     35       3.1756      1.00000
     36       3.8533      1.00000
     37       3.8533      1.00000
     38       4.0067      1.00000
     39       4.2842      1.00000
     40       4.6797      1.00000
     41       4.6797      1.00000
     42       4.9738      1.00000
     43       4.9738      1.00000
     44       6.1789      1.00000
     45       6.6809      1.00000
     46       6.7413      1.00000
     47       6.7413      1.00000
     48       8.5682      0.00000
     49       8.8417      0.00000
     50       8.8417      0.00000
     51      10.1445      0.00000
     52      10.1445      0.00000
     53      10.2188      0.00000
     54      10.5478      0.00000
     55      12.4274      0.00000
     56      12.4469      0.00000

 soft charge-density along one line, spin component           1
         0         1         2         3         4         5         6         7         8         9
 total charge-density along one line

 soft charge-density along one line, spin component           2
         0         1         2         3         4         5         6         7         8         9
 total charge-density along one line

------------------------ aborting loop because EDIFF is reached ----------------------------------------

            Ionic dipole moment: p[ion]=(   -10.31504    -5.95419    -4.20993 ) electrons Angst

    Spin resolved dipole moment: p[sp1]=(    -0.35341    -0.20400    -0.14424 ) electrons Angst
                                 p[sp2]=(     5.17069     2.98359     2.10947 ) electrons Angst

 Total electronic dipole moment: p[elc]=(     4.81727     2.77959     1.96523 ) electrons Angst

 total charge

# of ion     s       p       d       tot
  1        1.654   0.873  10.031  12.558
  2        1.654   0.873  10.031  12.558
  3        1.562   3.451   0.000   5.013
  4        1.565   3.353   0.000   4.917
  5        1.563   3.460   0.000   5.023
  6        1.562   3.435   0.000   4.997
  7        1.565   3.353   0.000   4.918
  8        1.563   3.476   0.000   5.039
  9        0.312   6.397   5.781  12.490
 10        0.312   6.397   5.781  12.490
tot       13.311  35.067  31.626  80.004

 magnetization (x)

[...]

  FORCE on cell =-STRESS in cart. coord.  units (eV):
  Direction    XX          YY          ZZ          XY          YZ          ZX
  Alpha Z   426.33323   426.33323   426.33323
  Ewald   -2877.84409 -2833.20671 -2822.05242   -38.64153   -15.77097   -27.32162
  Hartree   926.18017   954.88693   962.06037   -24.85077   -10.14248   -17.57082
  E(xc)    -495.54896  -495.55369  -495.55487     0.00410     0.00167     0.00290
  Local      60.63157   -13.98686   -32.63301    64.59542    26.36366    45.67241
  n-local    22.84821    22.26826    23.22371     0.86278     0.35268     1.05928
  augment   591.92173   593.21455   593.53761    -1.11917    -0.45677    -0.79131
  Kinetic  1346.54746  1345.56954  1344.48670     0.32806    -0.84657    -3.42518
  Fock        0.00000     0.00000     0.00000     0.00000     0.00000     0.00000
  Total      -0.00207    -0.00114    -0.00091    -0.00080    -0.00033    -0.00057
  in kB      -0.02805    -0.01549    -0.01236    -0.01087    -0.00444    -0.00768

 VOLUME and BASIS-vectors are now :
  energy-cutoff  :      520.00
  volume of cell :      118.18
      direct lattice vectors                 reciprocal lattice vectors
     5.515657543  0.008016856  0.005668345     0.181531204 -0.105113221 -0.074320656
     2.765604383  4.772208588  0.005668345    -0.000228513  0.209767288 -0.074320656
     2.765604383  1.596400712  4.497278254    -0.000228513 -0.000131905  0.222544057

  length of vectors
     5.515666282  5.515666282  5.515666282     0.222544214  0.222544214  0.222544214

 FORCES acting on ions
    electron-ion (+dipol)            ewald-force                    non-local-force                 convergence-correction
   0.175E+03 0.101E+03 0.716E+02   -.184E+03 -.106E+03 -.749E+02   0.814E+01 0.470E+01 0.332E+01   -.185E-02 -.107E-02 -.755E-03
   0.175E+03 0.101E+03 0.716E+02   -.184E+03 -.106E+03 -.749E+02   0.814E+01 0.470E+01 0.332E+01   -.223E-02 -.128E-02 -.908E-03
   -.369E+02 -.289E+02 0.320E+02   0.403E+02 0.317E+02 -.309E+02   -.344E+01 -.282E+01 -.108E+01   0.290E-03 0.540E-03 -.284E-03
   -.645E+00 -.423E+02 -.379E+02   0.406E+01 0.442E+02 0.402E+02   -.342E+01 -.200E+01 -.230E+01   0.689E-04 0.295E-03 0.604E-03
   -.434E+02 0.243E+02 -.272E+02   0.476E+02 -.228E+02 0.283E+02   -.416E+01 -.154E+01 -.112E+01   0.613E-03 -.274E-03 0.767E-04
   -.434E+02 -.175E+02 0.320E+02   0.476E+02 0.191E+02 -.309E+02   -.416E+01 -.157E+01 -.108E+01   -.670E-04 0.299E-04 -.436E-04
   -.369E+02 0.206E+02 -.379E+02   0.403E+02 -.186E+02 0.402E+02   -.344E+01 -.196E+01 -.230E+01   -.756E-05 -.654E-04 -.543E-04
   -.645E+00 -.498E+02 -.272E+02   0.406E+01 0.526E+02 0.283E+02   -.342E+01 -.283E+01 -.112E+01   -.604E-04 -.424E-04 0.428E-04
   -.902E+02 -.521E+02 -.368E+02   0.916E+02 0.529E+02 0.374E+02   -.136E+01 -.785E+00 -.555E+00   0.254E-02 0.146E-02 0.103E-02
   -.902E+02 -.521E+02 -.368E+02   0.916E+02 0.529E+02 0.374E+02   -.136E+01 -.785E+00 -.555E+00   0.200E-02 0.115E-02 0.816E-03
   0.849E+01 0.490E+01 0.346E+01   0.568E-13 -.142E-13 -.711E-13   -.849E+01 -.490E+01 -.347E+01   0.130E-02 0.749E-03 0.529E-03

 POSITION                                       TOTAL-FORCE (eV/Angst)
      0.00596      0.00344      0.00243         0.000367      0.000212      0.000150
      5.52939      3.19175      2.25674         0.000332      0.000192      0.000136
      6.68638      5.13664      1.79397        -0.000495     -0.000378      0.000479
      6.29176      4.08753      4.24464         0.000034     -0.000591     -0.000516
      7.79221      2.76518      2.43850        -0.000575      0.000372     -0.000385
      5.03438      1.62898      4.03694        -0.000547     -0.000247      0.000462
      3.92855      4.98778      1.99600        -0.000487      0.000319     -0.000484
      6.28398      2.18427      0.18986         0.000032     -0.000650     -0.000387
      2.51049      1.44914      1.02462         0.000678      0.000391      0.000277
      8.03393      4.63746      3.27893         0.000661      0.000381      0.000270
    total drift:                               -0.002686     -0.001550     -0.001100

  FREE ENERGIE OF THE ION-ELECTRON SYSTEM (eV)
  free  energy   TOTEN  =       -71.23738222 eV

  energy  without entropy=      -71.23738222  energy(sigma->0) =      -71.23738222

 total charge

[...]

 magnetization (x)

# of ion     s       p       d       tot
  1        0.001  -0.004   0.001  -0.002
  2       -0.001   0.004  -0.001   0.002
  3        0.001   0.046   0.000   0.047
  4        0.001   0.048   0.000   0.049
  5        0.001   0.040   0.000   0.041
  6       -0.001  -0.045   0.000  -0.045
  7       -0.000  -0.051   0.000  -0.051
  8       -0.001  -0.039   0.000  -0.040
  9        0.007   0.015   3.926   3.948
 10       -0.007  -0.015  -3.926  -3.948
tot       -0.000  -0.000   0.000  -0.000