 vasp.5.4.1 24Jun15 (build Jul 08 2015 18:11:14) complex

 executed on           IFC91_ompi date 2015.12.24  04:33:06

 INCAR:
 POTCAR:    PAW_PBE Bi_d 06Sep2000
 POTCAR:    PAW_PBE O 08Apr2002
 POTCAR:    PAW_PBE Fe_pv 02Aug2007
 POTCAR:    PAW_PBE Bi_d 06Sep2000
   VRHFIN =Bi:

   TITEL  = PAW_PBE Bi_d 06Sep2000
   POMASS =  208.980; ZVAL   =   15.000    mass and valenz
   ENMAX  =  242.839; ENMIN  =  182.129 eV

 POTCAR:    PAW_PBE O 08Apr2002
   VRHFIN =O: s2p4

   TITEL  = PAW_PBE O 08Apr2002
   POMASS =   16.000; ZVAL   =    6.000    mass and valenz
   ENMAX  =  400.000; ENMIN  =  300.000 eV

 POTCAR:    PAW_PBE Fe_pv 02Aug2007
   VRHFIN =Fe:  3pd7s1

   TITEL  = PAW_PBE Fe_pv 02Aug2007
   POMASS =   55.847; ZVAL   =   14.000    mass and valenz
   ENMAX  =  293.238; ENMIN  =  219.928 eV

  PAW_PBE Bi_d 06Sep2000                :
  PAW_PBE O 08Apr2002                   :
  PAW_PBE Fe_pv 02Aug2007               :

 POSCAR: Bi    O   Fe
  positions in direct lattice
  velocities in cartesian coordinates
 exchange correlation table for  LEXCH =        8
   RHO(1)=    0.500       N(1)  =     2000
   RHO(2)=  100.500       N(2)  =     4000

 ion  position               nearest neighbor table
   1  0.279  0.279  0.279-   6 2.32   7 2.32   8 2.32   5 2.50   3 2.50   4 2.50   9 3.11  10 3.34
                            10 3.34  10 3.34
   2  0.779  0.779  0.779-   3 2.32   4 2.32   5 2.32   8 2.50   6 2.50   7 2.50  10 3.11   9 3.34
                             9 3.34   9 3.34
   3  0.669  0.216  0.813-   9 1.98  10 2.13   2 2.32   1 2.50
   4  0.216  0.813  0.669-   9 1.98  10 2.13   2 2.32   1 2.50
   5  0.813  0.669  0.216-   9 1.98  10 2.13   2 2.32   1 2.50
   6  0.313  0.716  0.169-  10 1.99   9 2.13   1 2.32   2 2.50
   7  0.169  0.313  0.716-  10 1.99   9 2.13   1 2.32   2 2.50
   8  0.716  0.169  0.313-  10 1.99   9 2.13   1 2.32   2 2.50
   9  0.500  0.500  0.500-   5 1.98   4 1.98   3 1.98   6 2.13   8 2.13   7 2.13   1 3.11   2 3.34
                             2 3.34   2 3.34
  10  1.000  1.000  1.000-   7 1.99   8 1.99   6 1.99   5 2.13   3 2.13   4 2.13   2 3.11   1 3.34
                             1 3.34   1 3.34

  LATTYP: Found a trigonal (rhomboedric) cell.
 ALAT       =     5.7059564720
 COS(alpha) =     0.5141197773

  Lattice vectors:

 A1 = (   5.7059564708,   0.0000940756,   0.0000660577)
 A2 = (   2.9334643795,   4.8941522239,   0.0000660577)
 A3 = (   2.9334643795,   1.6618124562,   4.6033797752)

Analysis of symmetry for initial positions (statically):
 Subroutine PRICEL returns:
 Original cell was already a primitive cell.

 Routine SETGRP: Setting up the symmetry group for a
 trigonal (rhombohedral) supercell.

 Subroutine GETGRP returns: Found  6 space group operations
 (whereof  3 operations were pure point group operations)
 out of a pool of 12 trial point group operations.

The static configuration has the point symmetry C_3 .
 The point group associated with its full space group is C_3v.

Analysis of symmetry for dynamics (positions and initial velocities):
 Subroutine PRICEL returns:
 Original cell was already a primitive cell.

 Routine SETGRP: Setting up the symmetry group for a
 trigonal (rhombohedral) supercell.

 Subroutine GETGRP returns: Found  6 space group operations
 (whereof  3 operations were pure point group operations)
 out of a pool of 12 trial point group operations.

The dynamic configuration has the point symmetry C_3 .
 The point group associated with its full space group is C_3v.

Analysis of magnetic symmetry:
 Subroutine PRICEL returns:
 Original cell was already a primitive cell.

 Subroutine MAGSYM returns: Found  6 space group operations
 (whereof  3 operations were pure point group operations)
 out of a pool of  6 trial space group operations
 (whereof  3 operations were pure point group operations)
 and found also     1 'primitive' translations

The magnetic configuration has the point symmetry C_3 .
 The point group associated with its full space group is C_3v.

 KPOINTS: Gamma centred mesh

Automatic generation of k-mesh.
Space group operators:
 irot       det(A)        alpha          n_x          n_y          n_z        tau_x        tau_y        tau_z
    1     1.000000     0.000000     1.000000     0.000000     0.000000     0.000000     0.000000     0.000000
    2     1.000000   120.000000    -0.822229    -0.465794    -0.327070     0.000000     0.000000     0.000000
    3     1.000000   120.000000     0.822229     0.465794     0.327070     0.000000     0.000000     0.000000
    4    -1.000000   180.000000    -0.000000    -0.574657     0.818394     0.499993     0.499992     0.499988
    5    -1.000000   180.000000    -0.492904     0.870084     0.000000     0.499988     0.499993     0.499992
    6    -1.000000   180.000000    -0.492904     0.295426     0.818394     0.499992     0.499988     0.499993

 Subroutine IBZKPT returns following result:

 Found     65 irreducible k-points:

 Following reciprocal coordinates:
            Coordinates               Weight
  0.000000  0.000000  0.000000      1.000000
  0.125000 -0.000000 -0.000000      6.000000
  0.250000 -0.000000 -0.000000      6.000000
  0.375000 -0.000000  0.000000      6.000000
  0.500000 -0.000000 -0.000000      3.000000
  0.125000  0.125000 -0.000000      6.000000
  0.250000  0.125000  0.000000     12.000000
  0.375000  0.125000  0.000000     12.000000
  0.500000  0.125000  0.000000     12.000000
 -0.375000  0.125000  0.000000     12.000000
 -0.250000  0.125000 -0.000000     12.000000
 -0.125000  0.125000  0.000000      6.000000
  0.250000  0.250000 -0.000000      6.000000
  0.375000  0.250000 -0.000000     12.000000
  0.500000  0.250000  0.000000     12.000000
 -0.375000  0.250000 -0.000000     12.000000
 -0.250000  0.250000  0.000000      6.000000
  0.375000  0.375000  0.000000      6.000000
  0.500000  0.375000  0.000000     12.000000
 -0.375000  0.375000  0.000000      6.000000
  0.500000  0.500000 -0.000000      3.000000
  0.125000  0.125000  0.125000      2.000000
  0.250000  0.125000  0.125000      6.000000
  0.375000  0.125000  0.125000      6.000000
  0.500000  0.125000  0.125000      6.000000
 -0.375000  0.125000  0.125000      6.000000
 -0.250000  0.125000  0.125000      6.000000
 -0.125000  0.125000  0.125000      6.000000
  0.250000  0.250000  0.125000      6.000000
  0.375000  0.250000  0.125000     12.000000
  0.500000  0.250000  0.125000     12.000000
 -0.375000  0.250000  0.125000     12.000000
 -0.250000  0.250000  0.125000     12.000000
 -0.125000  0.250000  0.125000     12.000000
  0.375000  0.375000  0.125000      6.000000
  0.500000  0.375000  0.125000     12.000000
 -0.375000  0.375000  0.125000     12.000000
 -0.250000  0.375000  0.125000     12.000000
 -0.125000  0.375000  0.125000     12.000000
  0.500000  0.500000  0.125000      6.000000
 -0.375000  0.500000  0.125000     12.000000
 -0.250000  0.500000  0.125000     12.000000
 -0.125000  0.500000  0.125000      6.000000
 -0.375000 -0.375000  0.125000      6.000000
 -0.250000 -0.375000  0.125000     12.000000
 -0.250000 -0.250000  0.125000      6.000000
  0.250000  0.250000  0.250000      2.000000
  0.375000  0.250000  0.250000      6.000000
  0.500000  0.250000  0.250000      6.000000
 -0.375000  0.250000  0.250000      6.000000
 -0.250000  0.250000  0.250000      6.000000
  0.375000  0.375000  0.250000      6.000000
  0.500000  0.375000  0.250000     12.000000
 -0.375000  0.375000  0.250000     12.000000
 -0.250000  0.375000  0.250000     12.000000
  0.500000  0.500000  0.250000      6.000000
 -0.375000  0.500000  0.250000     12.000000
 -0.250000  0.500000  0.250000      6.000000
 -0.375000 -0.375000  0.250000      6.000000
  0.375000  0.375000  0.375000      2.000000
  0.500000  0.375000  0.375000      6.000000
 -0.375000  0.375000  0.375000      6.000000
  0.500000  0.500000  0.375000      6.000000
 -0.375000  0.500000  0.375000      6.000000
  0.500000  0.500000  0.500000      1.000000

 Following cartesian coordinates:
            Coordinates               Weight
  0.000000  0.000000  0.000000      1.000000
  0.021907 -0.013131 -0.009220      6.000000
  0.043815 -0.026261 -0.018440      6.000000
  0.065722 -0.039392 -0.027660      6.000000
  0.087629 -0.052523 -0.036880      3.000000
  0.021907  0.012410 -0.018440      6.000000
  0.043814 -0.000720 -0.027660     12.000000
  0.065721 -0.013851 -0.036880     12.000000
  0.087629 -0.026982 -0.046100     12.000000
 -0.065722  0.064933  0.018440     12.000000
 -0.043815  0.051802  0.009220     12.000000
 -0.021908  0.038672  0.000000      6.000000
  0.043814  0.024821 -0.036880      6.000000
  0.065721  0.011690 -0.046100     12.000000
  0.087628 -0.001441 -0.055320     12.000000
 -0.065722  0.090474  0.009220     12.000000
 -0.043815  0.077343  0.000000      6.000000
  0.065721  0.037231 -0.055320      6.000000
  0.087628  0.024100 -0.064540     12.000000
 -0.065723  0.116015  0.000000      6.000000
  0.087628  0.049641 -0.073760      3.000000
  0.021907  0.012410  0.008714      2.000000
  0.043814 -0.000721 -0.000506      6.000000
  0.065721 -0.013851 -0.009726      6.000000
  0.087628 -0.026982 -0.018946      6.000000
 -0.065722  0.064933  0.045594      6.000000
 -0.043815  0.051802  0.036374      6.000000
 -0.021908  0.038671  0.027154      6.000000
  0.043814  0.024820 -0.009726      6.000000
  0.065721  0.011690 -0.018946     12.000000
  0.087628 -0.001441 -0.028166     12.000000
 -0.065723  0.090474  0.036374     12.000000
 -0.043815  0.077343  0.027154     12.000000
 -0.021908  0.064212  0.017934     12.000000
  0.065721  0.037231 -0.028166      6.000000
  0.087628  0.024100 -0.037386     12.000000
 -0.065723  0.116015  0.027154     12.000000
 -0.043816  0.102884  0.017934     12.000000
 -0.021909  0.089753  0.008714     12.000000
  0.087627  0.049641 -0.046606      6.000000
 -0.065723  0.141556  0.017934     12.000000
 -0.043816  0.128425  0.008714     12.000000
 -0.021909  0.115294 -0.000506      6.000000
 -0.065721 -0.037231  0.082475      6.000000
 -0.043814 -0.050362  0.073255     12.000000
 -0.043814 -0.024821  0.064034      6.000000
  0.043813  0.024820  0.017428      2.000000
  0.065721  0.011690  0.008208      6.000000
  0.087628 -0.001441 -0.001012      6.000000
 -0.065723  0.090474  0.063529      6.000000
 -0.043816  0.077343  0.054308      6.000000
  0.065720  0.037231 -0.001012      6.000000
  0.087627  0.024100 -0.010232     12.000000
 -0.065723  0.116015  0.054308     12.000000
 -0.043816  0.102884  0.045088     12.000000
  0.087627  0.049641 -0.019452      6.000000
 -0.065724  0.141556  0.045088     12.000000
 -0.043816  0.128425  0.035868      6.000000
 -0.065721 -0.037231  0.109629      6.000000
  0.065720  0.037230  0.026142      2.000000
  0.087627  0.024100  0.016922      6.000000
 -0.065724  0.116014  0.081463      6.000000
  0.087627  0.049641  0.007702      6.000000
 -0.065724  0.141555  0.072243      6.000000
  0.087627  0.049641  0.034856      1.000000

 TETIRR: Found    256 inequivalent tetrahedra from     3072

 I would recommend the setting:
   dimension x,y,z NGX =    32 NGY =   32 NGZ =   32
 SYSTEM =  unknown system
 POSCAR =  Bi    O   Fe

 Startparameter for this run:
[...]

[...]

 occupancies and eigenvectors

  o =  0.0870  v =  0.0000  0.0000  0.0000  0.0000  0.0000 -0.1179  0.6427  0.6783  0.0115  0.3360      0.0000  0.0000  0.0000  0.0000  0.0000  0.0000  0.0000  0.0000  0.0000  0.0000
  o =  0.0870  v =  0.0000  0.0000  0.0000  0.0000  0.0000  0.6316 -0.2502  0.5722  0.0498 -0.4567      0.0000  0.0000  0.0000  0.0000  0.0000  0.0000  0.0000  0.0000  0.0000  0.0000
  o =  0.0879  v =  0.0000  0.0000  0.0000  0.0000  0.0000  0.6632  0.2640 -0.3397  0.4658  0.3977      0.0000  0.0000  0.0000  0.0000  0.0000  0.0000  0.0000  0.0000  0.0000  0.0000
  o =  0.2612  v =  0.0000  0.0000  0.0000  0.0000  0.0000 -0.3814 -0.0775  0.1141  0.8803 -0.2461      0.0000  0.0000  0.0000  0.0000  0.0000  0.0000  0.0000  0.0000  0.0000  0.0000
  o =  0.2612  v =  0.0000  0.0000  0.0000  0.0000  0.0000  0.0436  0.6699 -0.2900 -0.0741 -0.6781      0.0000  0.0000  0.0000  0.0000  0.0000  0.0000  0.0000  0.0000  0.0000  0.0000
  o =  0.9650  v = -0.6638 -0.2638  0.3390 -0.4658 -0.3974  0.0000  0.0000  0.0000  0.0000  0.0000      0.0000  0.0000  0.0000  0.0000  0.0000  0.0000  0.0000  0.0000  0.0000  0.0000
  o =  0.9654  v = -0.2169  0.6644  0.5749 -0.0116  0.4253  0.0000  0.0000  0.0000  0.0000  0.0000      0.0000  0.0000  0.0000  0.0000  0.0000  0.0000  0.0000  0.0000  0.0000  0.0000
  o =  0.9654  v = -0.5938  0.1516 -0.6861 -0.0682  0.3859  0.0000  0.0000  0.0000  0.0000  0.0000      0.0000  0.0000  0.0000  0.0000  0.0000  0.0000  0.0000  0.0000  0.0000  0.0000
  o =  0.9979  v = -0.3939 -0.0324  0.0998  0.8750 -0.2613  0.0000  0.0000  0.0000  0.0000  0.0000      0.0000  0.0000  0.0000  0.0000  0.0000  0.0000  0.0000  0.0000  0.0000  0.0000
  o =  0.9979  v =  0.0679  0.6818 -0.2718 -0.1122 -0.6664  0.0000  0.0000  0.0000  0.0000  0.0000      0.0000  0.0000  0.0000  0.0000  0.0000  0.0000  0.0000  0.0000  0.0000  0.0000
atom =  10  type =  3  l = 2

 onsite density matrix

[...]

  0.9809 -0.0024  0.0036 -0.0153 -0.0038
 -0.0024  0.9910  0.0065  0.0028 -0.0111
  0.0036  0.0065  0.9681 -0.0032 -0.0040
 -0.0153  0.0028 -0.0032  0.9801  0.0033
 -0.0038 -0.0111 -0.0040  0.0033  0.9715

 occupancies and eigenvectors

  o =  0.0870  v =  0.1720 -0.2586 -0.3453  0.3460 -0.8152  0.0000  0.0000  0.0000  0.0000  0.0000      0.0000  0.0000  0.0000  0.0000  0.0000  0.0000  0.0000  0.0000  0.0000  0.0000
  o =  0.0870  v = -0.1989  0.2552 -0.8174 -0.4761  0.0213  0.0000  0.0000  0.0000  0.0000  0.0000      0.0000  0.0000  0.0000  0.0000  0.0000  0.0000  0.0000  0.0000  0.0000  0.0000
  o =  0.0879  v =  0.6633  0.2640 -0.3398  0.4656  0.3977  0.0000  0.0000  0.0000  0.0000  0.0000      0.0000  0.0000  0.0000  0.0000  0.0000  0.0000  0.0000  0.0000  0.0000  0.0000
  o =  0.2612  v = -0.6946  0.2296 -0.1389  0.6570  0.1182  0.0000  0.0000  0.0000  0.0000  0.0000      0.0000  0.0000  0.0000  0.0000  0.0000  0.0000  0.0000  0.0000  0.0000  0.0000
  o =  0.2612  v =  0.0922  0.8635  0.2790 -0.0727 -0.4035  0.0000  0.0000  0.0000  0.0000  0.0000      0.0000  0.0000  0.0000  0.0000  0.0000  0.0000  0.0000  0.0000  0.0000  0.0000
  o =  0.9650  v =  0.0000  0.0000  0.0000  0.0000  0.0000 -0.6637 -0.2634  0.3382 -0.4666 -0.3974      0.0000  0.0000  0.0000  0.0000  0.0000  0.0000  0.0000  0.0000  0.0000  0.0000
  o =  0.9654  v =  0.0000  0.0000  0.0000  0.0000  0.0000  0.2350 -0.3455 -0.0773  0.4657 -0.7762      0.0000  0.0000  0.0000  0.0000  0.0000  0.0000  0.0000  0.0000  0.0000  0.0000
  o =  0.9654  v =  0.0000  0.0000  0.0000  0.0000  0.0000 -0.1493  0.1520 -0.8921 -0.3307 -0.2224      0.0000  0.0000  0.0000  0.0000  0.0000  0.0000  0.0000  0.0000  0.0000  0.0000
  o =  0.9979  v =  0.0000  0.0000  0.0000  0.0000  0.0000 -0.5523  0.6155  0.0216  0.5502 -0.1132      0.0000  0.0000  0.0000  0.0000  0.0000  0.0000  0.0000  0.0000  0.0000  0.0000
  o =  0.9979  v =  0.0000  0.0000  0.0000  0.0000  0.0000  0.4205  0.6397  0.2887 -0.3915 -0.4211      0.0000  0.0000  0.0000  0.0000  0.0000  0.0000  0.0000  0.0000  0.0000  0.0000
 BZINTS: Fermi energy: 32.958047; 94.000000 electrons
         Band energy: 496.475672;  BLOECHL correction: -0.616313

 eigenvalue-minimisations  : 14856
 total energy-change (2. order) : 0.1357037E+04  (-0.4992261E+04)
 number of electron      94.0000186 magnetization       0.0000000
 augmentation part       94.0000186 magnetization       0.0000000

 Free energy of the ion-electron system (eV)
  alpha Z        PSCENC =       399.63707861
  Ewald energy   TEWEN  =     -8258.10432269
  -Hartree energ DENC   =     -3003.63063826
  -exchange      EXHF   =         0.00000000
  -V(xc)+E(xc)   XCENC  =       411.17425050
  PAW double counting   =     10751.48959661   -10867.38869961
  entropy T*S    EENTRO =         0.00000000
  eigenvalues    EBANDS =       496.47567211
  atomic energy  EATOM  =     11427.38436067
  Solvation  Ediel_sol  =         0.00000000
  free energy    TOTEN  =      1357.03729793 eV

  energy without entropy =     1357.03729793  energy(sigma->0) =     1357.03729793

[...]

 BZINTS: Fermi energy: 11.202192; 94.000000 electrons
         Band energy:-702.716815;  BLOECHL correction: -0.198779

 eigenvalue-minimisations  : 14824
 total energy-change (2. order) :-0.1199192E+04  (-0.1166398E+04)
 number of electron      94.0000186 magnetization       0.0000000
 augmentation part       94.0000186 magnetization       0.0000000

[...]

----------------------------------------- Iteration    1(  10)  ---------------------------------------

[...]

 eigenvalue-minimisations  : 10240
 total energy-change (2. order) :-0.1403714E-07  (-0.1402275E-07)
 number of electron      94.0000186 magnetization       0.0000000
 augmentation part       94.0000186 magnetization       0.0000000

 Free energy of the ion-electron system (eV)
  alpha Z        PSCENC =       399.63707861
  Ewald energy   TEWEN  =     -8258.10432269
  -Hartree energ DENC   =     -3003.63063826
  -exchange      EXHF   =         0.00000000
  -V(xc)+E(xc)   XCENC  =       411.17425050
  PAW double counting   =     10751.48959661   -10867.38869961
  entropy T*S    EENTRO =         0.00000000
  eigenvalues    EBANDS =      -923.53138833
  atomic energy  EATOM  =     11427.38436067
  Solvation  Ediel_sol  =         0.00000000
  free energy    TOTEN  =       -62.96976250 eV

  energy without entropy =      -62.96976250  energy(sigma->0) =      -62.96976250

 average (electrostatic) potential at core
  the test charge radii are     1.0856  0.7215  0.9500
  (the norm of the test charge is              1.0000)
       1-104.2312       2-104.2307       3 -68.1262       4 -68.1258       5 -68.1265
       6 -68.1242       7 -68.1236       8 -68.1245       9 -79.0337      10 -79.0290

 E-fermi :   5.9470     XC(G=0): -11.2745     alpha+bet :-12.6767

[...]

 k-point     1 :       0.0000    0.0000    0.0000
  band No.  band energies     occupation
      1     -50.8713      1.00000
      2     -50.8097      1.00000
      3     -50.8097      1.00000
      4     -46.0873      1.00000
      5     -46.0420      1.00000
      6     -46.0420      1.00000
      7     -16.1835      1.00000
      8     -16.1835      1.00000
      9     -16.1066      1.00000
     10     -16.1066      1.00000
     11     -16.1033      1.00000
     12     -16.0668      1.00000
     13     -16.0668      1.00000
     14     -16.0450      1.00000
     15     -16.0251      1.00000
     16     -16.0251      1.00000
     17     -12.4714      1.00000
     18     -10.8779      1.00000
     19     -10.7776      1.00000
     20     -10.7772      1.00000
     21     -10.4930      1.00000
     22     -10.4926      1.00000
     23      -3.8267      1.00000
     24      -2.2934      1.00000
     25      -0.5680      1.00000
     26      -0.5680      1.00000
     27      -0.3858      1.00000
     28      -0.3857      1.00000
     29      -0.1706      1.00000
     30       0.2102      1.00000
     31       1.2949      1.00000
     32       1.2950      1.00000
     33       1.5077      1.00000
     34       2.0244      1.00000
     35       2.0245      1.00000
     36       2.3972      1.00000
     37       3.8218      1.00000
     38       3.8220      1.00000
     39       4.5853      1.00000
     40       4.5856      1.00000
     41       4.5933      1.00000
     42       4.9724      1.00000
     43       4.9725      1.00000
     44       5.1784      1.00000
     45       5.1785      1.00000
     46       5.1986      1.00000
     47       5.4557      1.00000
     48       8.2714      0.00000
     49       8.2714      0.00000
     50       8.2939      0.00000
     51       9.3861      0.00000
     52       9.3861      0.00000
     53      11.2028      0.00000
     54      11.2028      0.00000
     55      11.7546      0.00000
     56      12.0885      0.00000

[...]

 spin component 2

[...]

 k-point    65 :       0.5000    0.5000    0.5000
  band No.  band energies     occupation
      1     -50.8664      1.00000
      2     -50.8051      1.00000
      3     -50.8050      1.00000
      4     -46.0922      1.00000
      5     -46.0467      1.00000
      6     -46.0467      1.00000
      7     -16.1267      1.00000
      8     -16.1266      1.00000
      9     -16.1239      1.00000
     10     -16.1239      1.00000
     11     -16.0752      1.00000
     12     -16.0722      1.00000
     13     -16.0630      1.00000
     14     -16.0630      1.00000
     15     -16.0617      1.00000
     16     -16.0617      1.00000
     17     -11.7817      1.00000
     18     -11.7037      1.00000
     19     -10.7240      1.00000
     20     -10.7236      1.00000
     21     -10.5948      1.00000
     22     -10.5945      1.00000
     23      -3.4209      1.00000
     24      -3.3699      1.00000
     25      -0.5288      1.00000
     26      -0.5287      1.00000
     27      -0.2313      1.00000
     28      -0.2313      1.00000
     29      -0.1372      1.00000
     30       1.3093      1.00000
     31       1.7177      1.00000
     32       1.7178      1.00000
     33       1.7630      1.00000
     34       2.5318      1.00000
     35       2.5319      1.00000
     36       3.1570      1.00000
     37       3.1571      1.00000
     38       3.5430      1.00000
     39       3.7055      1.00000
     40       4.0580      1.00000
     41       4.0582      1.00000
     42       4.4187      1.00000
     43       4.4189      1.00000
     44       5.5066      1.00000
     45       5.5553      1.00000
     46       5.5554      1.00000
     47       5.8535      1.00000
     48       8.1568      0.00000
     49       8.3627      0.00000
     50       8.3628      0.00000
     51       9.0939      0.00000
     52       9.0940      0.00000
     53       9.5742      0.00000
     54       9.8268      0.00000
     55      11.4689      0.00000
     56      11.4883      0.00000

 soft charge-density along one line, spin component           1
         0         1         2         3         4         5         6         7         8         9
 total charge-density along one line

 soft charge-density along one line, spin component           2
         0         1         2         3         4         5         6         7         8         9
 total charge-density along one line

------------------------ aborting loop because EDIFF is reached ----------------------------------------

 total charge

# of ion     s       p       d       tot
  1        1.652   0.840  10.017  12.509
  2        1.652   0.841  10.017  12.510
  3        1.572   3.477   0.000   5.048
  4        1.571   3.416   0.000   4.987
  5        1.572   3.362   0.000   4.935
  6        1.571   3.456   0.000   5.026
  7        1.572   3.361   0.000   4.933
  8        1.572   3.435   0.000   5.007
  9        0.289   6.341   5.655  12.285
 10        0.289   6.341   5.655  12.285
tot       13.310  34.870  31.344  79.524

 magnetization (x)

[...]

  FORCE on cell =-STRESS in cart. coord.  units (eV):
  Direction    XX          YY          ZZ          XY          YZ          ZX
  Alpha Z   399.63708   399.63708   399.63708
  Ewald   -2772.06924 -2746.13296 -2739.91624   -21.63734    -8.61160   -15.19169
  Hartree   986.24939  1006.28905  1011.09374   -16.72139    -6.65286   -11.73983
  E(xc)    -506.78752  -506.71005  -506.69154    -0.06458    -0.02569    -0.04535
  Local     -53.01684  -100.56383  -111.96606    39.67418    15.78579    27.85497
  n-local     9.76783     8.84845     9.10598     1.76692     0.05076     1.63911
  augment   593.76709   595.15052   595.48317    -1.15552    -0.45926    -0.81117
  Kinetic  1343.47638  1342.94512  1342.76732    -1.25624     0.82237    -4.04299
  Fock        0.00000     0.00000     0.00000     0.00000     0.00000     0.00000
  Total       0.00000     0.00044     0.00054    -0.00036    -0.00014    -0.00026
  in kB       0.00002     0.00545     0.00675    -0.00453    -0.00180    -0.00318

 VOLUME and BASIS-vectors are now :
  energy-cutoff  :      520.00
  volume of cell :      128.55
      direct lattice vectors                 reciprocal lattice vectors
     5.705956471  0.000094076  0.000066058     0.175258041 -0.105045435 -0.073760460
     2.933464379  4.894152224  0.000066058    -0.000002515  0.204327982 -0.073760460
     2.933464379  1.661812456  4.603379775    -0.000002515 -0.000001425  0.217233814

  length of vectors
     5.705956472  5.705956472  5.705956472     0.217233814  0.217233814  0.217233814

 FORCES acting on ions
    electron-ion (+dipol)            ewald-force                    non-local-force                 convergence-correction
   0.192E+03 0.109E+03 0.763E+02   -.201E+03 -.114E+03 -.798E+02   0.887E+01 0.503E+01 0.353E+01   -.311E-02 -.161E-02 -.202E-02
   0.192E+03 0.109E+03 0.762E+02   -.201E+03 -.114E+03 -.798E+02   0.887E+01 0.503E+01 0.353E+01   0.308E-02 -.103E-02 0.907E-03
   -.296E+01 -.583E+02 -.270E+02   0.638E+01 0.619E+02 0.286E+02   -.343E+01 -.354E+01 -.158E+01   -.274E-03 -.606E-03 -.118E-02
   -.516E+02 -.160E+02 0.350E+02   0.563E+02 0.180E+02 -.345E+02   -.479E+01 -.186E+01 -.519E+00   -.291E-02 -.144E-02 -.790E-03
   -.403E+02 0.207E+02 -.457E+02   0.444E+02 -.192E+02 0.485E+02   -.406E+01 -.156E+01 -.279E+01   -.259E-02 -.334E-03 -.233E-02
   -.403E+02 -.359E+02 0.350E+02   0.444E+02 0.391E+02 -.345E+02   -.406E+01 -.315E+01 -.519E+00   -.225E-02 -.575E-03 0.107E-02
   -.291E+01 -.453E+02 -.456E+02   0.635E+01 0.479E+02 0.485E+02   -.343E+01 -.268E+01 -.279E+01   -.154E-03 -.141E-02 -.130E-02
   -.515E+02 0.275E+02 -.271E+02   0.563E+02 -.264E+02 0.286E+02   -.479E+01 -.112E+01 -.158E+01   -.191E-02 -.616E-03 -.167E-02
   -.914E+02 -.518E+02 -.364E+02   0.935E+02 0.530E+02 0.372E+02   -.206E+01 -.117E+01 -.820E+00   -.606E-02 0.756E-02 0.574E-02
   -.914E+02 -.518E+02 -.363E+02   0.935E+02 0.530E+02 0.372E+02   -.206E+01 -.117E+01 -.820E+00   -.106E-01 -.969E-02 -.681E-02
   0.110E+02 0.625E+01 0.435E+01   0.000E+00 0.284E-13 0.142E-13   -.109E+02 -.620E+01 -.435E+01   -.267E-01 -.975E-02 -.838E-02

 POSITION                                       TOTAL-FORCE (eV/Angst)
      3.23193      1.83090      1.28561        -0.000411     -0.000233     -0.000163
      9.01848      5.10900      3.58741        -0.000411     -0.000233     -0.000163
      6.83707      2.40683      3.74305        -0.000124      0.000392      0.000561
      5.57930      5.09174      3.08127         0.000273      0.000423     -0.000480
      7.23565      3.63432      0.99294         0.000503     -0.000446      0.000178
      4.38272      3.78397      0.77955         0.000503      0.000016     -0.000480
      3.98406      2.72175      3.29449        -0.000124      0.000661      0.000178
      5.49878      1.34912      1.44146         0.000273     -0.000308      0.000561
      5.78643      3.27802      2.30175        -0.000241     -0.000137     -0.000096
     11.57285      6.55604      4.60350        -0.000241     -0.000137     -0.000096
    total drift:                               -0.019644      0.037914     -0.012832

  FREE ENERGIE OF THE ION-ELECTRON SYSTEM (eV)
  free  energy   TOTEN  =       -62.96976250 eV

  energy  without entropy=      -62.96976250  energy(sigma->0) =      -62.96976250

 total charge

[...]

 magnetization (x)

# of ion     s       p       d       tot
  1        0.001  -0.003   0.001  -0.002
  2       -0.001   0.003  -0.001   0.002
  3        0.001   0.037   0.000   0.039
  4        0.001   0.040   0.000   0.041
  5        0.000   0.049   0.000   0.049
  6       -0.001  -0.046   0.000  -0.047
  7       -0.001  -0.042   0.000  -0.044
  8       -0.001  -0.038   0.000  -0.039
  9        0.014   0.020   4.105   4.138
 10       -0.014  -0.020  -4.105  -4.138
tot       -0.000   0.001   0.000   0.000

 BZINTS: Fermi energy:  5.946992; 94.000000 electrons
         Band energy:-923.531388;  BLOECHL correction:  0.000000