 vasp.5.4.1 24Jun15 (build Jul 08 2015 18:11:14) complex

 executed on           IFC91_ompi date 2015.12.24  04:33:06

 INCAR:
 POTCAR:    PAW_PBE Bi_d 06Sep2000
 POTCAR:    PAW_PBE O 08Apr2002
 POTCAR:    PAW_PBE Fe_pv 02Aug2007
 POTCAR:    PAW_PBE Bi_d 06Sep2000
   VRHFIN =Bi:

   TITEL  = PAW_PBE Bi_d 06Sep2000
   POMASS =  208.980; ZVAL   =   15.000    mass and valenz
   ENMAX  =  242.839; ENMIN  =  182.129 eV

 POTCAR:    PAW_PBE O 08Apr2002
   VRHFIN =O: s2p4

   TITEL  = PAW_PBE O 08Apr2002
   POMASS =   16.000; ZVAL   =    6.000    mass and valenz
   ENMAX  =  400.000; ENMIN  =  300.000 eV

 POTCAR:    PAW_PBE Fe_pv 02Aug2007
   VRHFIN =Fe:  3pd7s1

   TITEL  = PAW_PBE Fe_pv 02Aug2007
   POMASS =   55.847; ZVAL   =   14.000    mass and valenz
   ENMAX  =  293.238; ENMIN  =  219.928 eV

  PAW_PBE Bi_d 06Sep2000                :
  PAW_PBE O 08Apr2002                   :
  PAW_PBE Fe_pv 02Aug2007               :

 POSCAR: Bi    O   Fe
  positions in direct lattice
  velocities in cartesian coordinates
 exchange correlation table for  LEXCH =        8
   RHO(1)=    0.500       N(1)  =     2000
   RHO(2)=  100.500       N(2)  =     4000

 ion  position               nearest neighbor table
   1  0.279  0.279  0.279-   6 2.33   7 2.33   8 2.33   5 2.50   3 2.50   4 2.50   9 3.10  10 3.33
                            10 3.33  10 3.33
   2  0.779  0.779  0.779-   3 2.33   4 2.33   5 2.33   8 2.50   6 2.50   7 2.50  10 3.10   9 3.33
                             9 3.33   9 3.33
   3  0.670  0.216  0.813-   9 1.99  10 2.12   2 2.33   1 2.50
   4  0.216  0.813  0.670-   9 1.99  10 2.12   2 2.33   1 2.50
   5  0.813  0.670  0.216-   9 1.99  10 2.12   2 2.33   1 2.50
   6  0.313  0.716  0.170-  10 1.99   9 2.12   1 2.33   2 2.50
   7  0.170  0.313  0.716-  10 1.99   9 2.12   1 2.33   2 2.50
   8  0.716  0.170  0.313-  10 1.99   9 2.12   1 2.33   2 2.50
   9  0.499  0.499  0.499-   5 1.99   4 1.99   3 1.99   6 2.12   8 2.12   7 2.12   1 3.10   2 3.33
                             2 3.33   2 3.33
  10  0.999  0.999  0.999-   7 1.99   8 1.99   6 1.99   5 2.12   3 2.12   4 2.12   2 3.10   1 3.33
                             1 3.33   1 3.33

  LATTYP: Found a trigonal (rhomboedric) cell.
 ALAT       =     5.7045874967
 COS(alpha) =     0.5138780774

  Lattice vectors:

 A1 = (   5.7045874308,  -0.0007096507,  -0.0004983002)
 A2 = (   2.9320711832,   4.8933911388,  -0.0004983002)
 A3 = (   2.9320711832,   1.6610232082,   4.6028555252)

Analysis of symmetry for initial positions (statically):
 Subroutine PRICEL returns:
 Original cell was already a primitive cell.

 Routine SETGRP: Setting up the symmetry group for a
 trigonal (rhombohedral) supercell.

 Subroutine GETGRP returns: Found  3 space group operations
 (whereof  3 operations were pure point group operations)
 out of a pool of 12 trial point group operations.

The static configuration has the point symmetry C_3 .

Analysis of symmetry for dynamics (positions and initial velocities):
 Subroutine PRICEL returns:
 Original cell was already a primitive cell.

 Routine SETGRP: Setting up the symmetry group for a
 trigonal (rhombohedral) supercell.

 Subroutine GETGRP returns: Found  3 space group operations
 (whereof  3 operations were pure point group operations)
 out of a pool of 12 trial point group operations.

The dynamic configuration has the point symmetry C_3 .

Analysis of magnetic symmetry:
 Subroutine PRICEL returns:
 Original cell was already a primitive cell.

 Subroutine MAGSYM returns: Found  3 space group operations
 (whereof  3 operations were pure point group operations)
 out of a pool of  3 trial space group operations
 (whereof  3 operations were pure point group operations)
 and found also     1 'primitive' translations

The magnetic configuration has the point symmetry C_3 .

 KPOINTS: Gamma centred mesh

Automatic generation of k-mesh.
Space group operators:
 irot       det(A)        alpha          n_x          n_y          n_z        tau_x        tau_y        tau_z
    1     1.000000     0.000000     1.000000     0.000000     0.000000     0.000000     0.000000     0.000000
    2     1.000000   120.000000    -0.822229    -0.465794    -0.327070     0.000000     0.000000     0.000000
    3     1.000000   120.000000     0.822229     0.465794     0.327070     0.000000     0.000000     0.000000

 Subroutine IBZKPT returns following result:

 Found     90 irreducible k-points:

 Following reciprocal coordinates:
            Coordinates               Weight
  0.000000  0.000000  0.000000      1.000000
  0.125000  0.000000 -0.000000      6.000000
  0.250000  0.000000 -0.000000      6.000000
  0.375000  0.000000 -0.000000      6.000000
  0.500000  0.000000 -0.000000      3.000000
  0.125000  0.125000 -0.000000      6.000000
  0.250000  0.125000 -0.000000      6.000000
  0.375000  0.125000 -0.000000      6.000000
  0.500000  0.125000 -0.000000      6.000000
 -0.375000  0.125000  0.000000      6.000000
 -0.250000  0.125000  0.000000      6.000000
 -0.125000  0.125000  0.000000      6.000000
  0.125000  0.250000  0.000000      6.000000
  0.250000  0.250000 -0.000000      6.000000
  0.375000  0.250000 -0.000000      6.000000
  0.500000  0.250000 -0.000000      6.000000
 -0.375000  0.250000  0.000000      6.000000
 -0.250000  0.250000  0.000000      6.000000
 -0.125000  0.250000  0.000000      6.000000
  0.125000  0.375000 -0.000000      6.000000
  0.250000  0.375000  0.000000      6.000000
  0.375000  0.375000  0.000000      6.000000
  0.500000  0.375000  0.000000      6.000000
 -0.375000  0.375000  0.000000      6.000000
 -0.250000  0.375000  0.000000      6.000000
 -0.125000  0.375000  0.000000      6.000000
  0.125000  0.500000  0.000000      6.000000
  0.250000  0.500000  0.000000      6.000000
  0.375000  0.500000  0.000000      6.000000
  0.500000  0.500000 -0.000000      3.000000
  0.125000  0.125000  0.125000      2.000000
  0.250000  0.125000  0.125000      6.000000
  0.375000  0.125000  0.125000      6.000000
  0.500000  0.125000  0.125000      6.000000
 -0.375000  0.125000  0.125000      6.000000
 -0.250000  0.125000  0.125000      6.000000
 -0.125000  0.125000  0.125000      6.000000
  0.250000  0.250000  0.125000      6.000000
  0.375000  0.250000  0.125000      6.000000
  0.500000  0.250000  0.125000      6.000000
 -0.375000  0.250000  0.125000      6.000000
 -0.250000  0.250000  0.125000      6.000000
 -0.125000  0.250000  0.125000      6.000000
  0.250000  0.375000  0.125000      6.000000
  0.375000  0.375000  0.125000      6.000000
  0.500000  0.375000  0.125000      6.000000
 -0.375000  0.375000  0.125000      6.000000
 -0.250000  0.375000  0.125000      6.000000
 -0.125000  0.375000  0.125000      6.000000
  0.250000  0.500000  0.125000      6.000000
  0.375000  0.500000  0.125000      6.000000
  0.500000  0.500000  0.125000      6.000000
 -0.375000  0.500000  0.125000      6.000000
 -0.250000  0.500000  0.125000      6.000000
 -0.125000  0.500000  0.125000      6.000000
  0.250000 -0.375000  0.125000      6.000000
  0.375000 -0.375000  0.125000      6.000000
  0.500000 -0.375000  0.125000      6.000000
 -0.375000 -0.375000  0.125000      6.000000
 -0.250000 -0.375000  0.125000      6.000000
[...]
 -0.250000  0.375000  0.250000      6.000000
  0.375000  0.500000  0.250000      6.000000
  0.500000  0.500000  0.250000      6.000000
 -0.375000  0.500000  0.250000      6.000000
 -0.250000  0.500000  0.250000      6.000000
  0.375000 -0.375000  0.250000      6.000000
  0.500000 -0.375000  0.250000      6.000000
 -0.375000 -0.375000  0.250000      6.000000
 -0.250000 -0.375000  0.250000      6.000000
  0.375000  0.375000  0.375000      2.000000
  0.500000  0.375000  0.375000      6.000000
 -0.375000  0.375000  0.375000      6.000000
  0.500000  0.500000  0.375000      6.000000
 -0.375000  0.500000  0.375000      6.000000
  0.500000  0.500000  0.500000      1.000000

 Following cartesian coordinates:
            Coordinates               Weight
  0.000000  0.000000  0.000000      1.000000
  0.021910 -0.013129 -0.009219      6.000000
  0.043820 -0.026258 -0.018438      6.000000
  0.065729 -0.039387 -0.027657      6.000000
  0.087639 -0.052516 -0.036876      3.000000
  0.021912  0.012413 -0.018438      6.000000
  0.043822 -0.000716 -0.027657      6.000000
  0.065732 -0.013845 -0.036876      6.000000
  0.087641 -0.026974 -0.046095      6.000000
 -0.065727  0.064929  0.018438      6.000000
 -0.043817  0.051800  0.009219      6.000000
 -0.021907  0.038671  0.000000      6.000000
  0.021914  0.037956 -0.027657      6.000000
  0.043824  0.024827 -0.036876      6.000000
  0.065734  0.011697 -0.046095      6.000000
  0.087644 -0.001432 -0.055313      6.000000
 -0.065725  0.090472  0.009219      6.000000
 -0.043815  0.077343  0.000000      6.000000
 -0.021905  0.064214 -0.009219      6.000000
  0.021917  0.063498 -0.036876      6.000000
  0.043827  0.050369 -0.046095      6.000000
  0.065736  0.037240 -0.055313      6.000000
  0.087646  0.024111 -0.064532      6.000000
 -0.065722  0.116014  0.000000      6.000000
 -0.043812  0.102885 -0.009219      6.000000
 -0.021903  0.089756 -0.018438      6.000000
  0.021919  0.089040 -0.046095      6.000000
  0.043829  0.075911 -0.055313      6.000000
  0.065739  0.062782 -0.064532      6.000000
  0.087648  0.049653 -0.073751      3.000000
  0.021914  0.012415  0.008717      2.000000
  0.043824 -0.000714 -0.000502      6.000000
  0.065734 -0.013843 -0.009721      6.000000
  0.087644 -0.026973 -0.018939      6.000000
 -0.065725  0.064931  0.045593      6.000000
 -0.043815  0.051802  0.036374      6.000000
 -0.021905  0.038673  0.027155      6.000000
  0.043827  0.024828 -0.009721      6.000000
  0.065736  0.011699 -0.018939      6.000000
  0.087646 -0.001430 -0.028158      6.000000
 -0.065722  0.090473  0.036374      6.000000
 -0.043812  0.077344  0.027155      6.000000
 -0.021903  0.064215  0.017936      6.000000
  0.043829  0.050370 -0.018939      6.000000
  0.065739  0.037241 -0.028158      6.000000
  0.087648  0.024112 -0.037377      6.000000
 -0.065720  0.116015  0.027155      6.000000
 -0.043810  0.102886  0.017936      6.000000
 -0.021900  0.089757  0.008717      6.000000
  0.043831  0.075912 -0.028158      6.000000
  0.065741  0.062783 -0.037377      6.000000
  0.087651  0.049654 -0.046596      6.000000
 -0.065717  0.141558  0.017936      6.000000
 -0.043808  0.128429  0.008717      6.000000
 -0.021898  0.115300 -0.000502      6.000000
  0.043815 -0.102884  0.036374      6.000000
  0.065725 -0.116013  0.027155      6.000000
  0.087634 -0.129142  0.017936      6.000000
 -0.065734 -0.037238  0.082469      6.000000
 -0.043824 -0.050367  0.073250      6.000000
[...]
 -0.043808  0.102888  0.045091      6.000000
  0.065743  0.062785 -0.010222      6.000000
  0.087653  0.049656 -0.019441      6.000000
 -0.065715  0.141559  0.045091      6.000000
 -0.043805  0.128430  0.035872      6.000000
  0.065727 -0.116011  0.054310      6.000000
  0.087637 -0.129140  0.045091      6.000000
 -0.065732 -0.037237  0.109624      6.000000
 -0.043822 -0.050366  0.100405      6.000000
  0.065743  0.037244  0.026152      2.000000
  0.087653  0.024115  0.016933      6.000000
[...]

[...]

 eigenvalue-minimisations  : 20680
 total energy-change (2. order) :-0.1201573E+04  (-0.1168745E+04)
 number of electron      94.0000159 magnetization       0.0000000
 augmentation part       94.0000159 magnetization       0.0000000

[...]

 Broyden mixing:
  rms(total) = 0.59345E-02    rms(broyden)= 0.59303E-02
  rms(prec ) = 0.85372E-02
  weight for this iteration     100.00

[...]

 eigenvalues of (default mixing * dielectric matrix)
  average eigenvalue GAMMA=   0.3157
  0.3157

[...]

 eigenvalue-minimisations  : 27664
 total energy-change (2. order) : 0.1581047E-06  (-0.2173445E-06)
 number of electron      94.0000159 magnetization       0.0000000
 augmentation part       32.1887891 magnetization      -0.0000046

[...]

 Broyden mixing:
  rms(total) = 0.20441E-05    rms(broyden)= 0.20440E-05
  rms(prec ) = 0.32362E-05
  weight for this iteration     100.00

 eigenvalues of (default mixing * dielectric matrix)
  average eigenvalue GAMMA=   1.0984
  2.9274  2.2276  1.3099  1.0963  1.0963  0.7971  0.7971  0.4878  0.6323  0.6323
  0.5885  0.5885

[...]

----------------------------------------- Iteration    1(  18)  ---------------------------------------

atom =   9  type =  3  l = 2

[...]

  o =  0.0681  v =  0.0000  0.0000  0.0000  0.0000  0.0000  0.6634  0.2639 -0.3395  0.4658  0.3976      0.0000  0.0000  0.0000  0.0000  0.0000  0.0000  0.0000  0.0000  0.0000  0.0000
  o =  0.0687  v =  0.0000  0.0000  0.0000  0.0000  0.0000  0.5461 -0.6137 -0.0149  0.0442 -0.5683      0.0000  0.0000  0.0000  0.0000  0.0000  0.0000  0.0000  0.0000  0.0000  0.0000
  o =  0.0687  v =  0.0000  0.0000  0.0000  0.0000  0.0000  0.3273  0.3072  0.8918  0.0418 -0.0374      0.0000  0.0000  0.0000  0.0000  0.0000  0.0000  0.0000  0.0000  0.0000  0.0000
  o =  0.2452  v =  0.0000  0.0000  0.0000  0.0000  0.0000 -0.3513 -0.4320  0.2493  0.7712  0.1822      0.0000  0.0000  0.0000  0.0000  0.0000  0.0000  0.0000  0.0000  0.0000  0.0000
  o =  0.2452  v =  0.0000  0.0000  0.0000  0.0000  0.0000  0.1766 -0.5223  0.1645 -0.4297  0.6959      0.0000  0.0000  0.0000  0.0000  0.0000  0.0000  0.0000  0.0000  0.0000  0.0000
  o =  0.9707  v =  0.6634  0.2639 -0.3395  0.4658  0.3976  0.0000  0.0000  0.0000  0.0000  0.0000      0.0000  0.0000  0.0000  0.0000  0.0000  0.0000  0.0000  0.0000  0.0000  0.0000
  o =  0.9708  v =  0.5723 -0.5825  0.0756  0.0560 -0.5695  0.0000  0.0000  0.0000  0.0000  0.0000      0.0000  0.0000  0.0000  0.0000  0.0000  0.0000  0.0000  0.0000  0.0000  0.0000
  o =  0.9708  v =  0.2720  0.3610  0.8910  0.0355  0.0259  0.0000  0.0000  0.0000  0.0000  0.0000      0.0000  0.0000  0.0000  0.0000  0.0000  0.0000  0.0000  0.0000  0.0000  0.0000
  o =  1.0083  v = -0.3534 -0.4386  0.2494  0.7615  0.2015  0.0000  0.0000  0.0000  0.0000  0.0000      0.0000  0.0000  0.0000  0.0000  0.0000  0.0000  0.0000  0.0000  0.0000  0.0000
  o =  1.0083  v =  0.1831 -0.5181  0.1517 -0.4458  0.6902  0.0000  0.0000  0.0000  0.0000  0.0000      0.0000  0.0000  0.0000  0.0000  0.0000  0.0000  0.0000  0.0000  0.0000  0.0000
atom =  10  type =  3  l = 2

 onsite density matrix

[...]

  0.9889 -0.0027  0.0041 -0.0176 -0.0045
 -0.0027  1.0003  0.0076  0.0034 -0.0127
  0.0041  0.0076  0.9740 -0.0037 -0.0047
 -0.0176  0.0034 -0.0037  0.9878  0.0039
 -0.0045 -0.0127 -0.0047  0.0039  0.9780

 occupancies and eigenvectors

  o =  0.0681  v =  0.6634  0.2639 -0.3395  0.4658  0.3976  0.0000  0.0000  0.0000  0.0000  0.0000      0.0000  0.0000  0.0000  0.0000  0.0000  0.0000  0.0000  0.0000  0.0000  0.0000
  o =  0.0686  v = -0.0813  0.1567  0.6329 -0.1433  0.7401  0.0000  0.0000  0.0000  0.0000  0.0000      0.0000  0.0000  0.0000  0.0000  0.0000  0.0000  0.0000  0.0000  0.0000  0.0000
  o =  0.0686  v =  0.2598 -0.3394  0.6285  0.5607 -0.3284  0.0000  0.0000  0.0000  0.0000  0.0000      0.0000  0.0000  0.0000  0.0000  0.0000  0.0000  0.0000  0.0000  0.0000  0.0000
  o =  0.2452  v =  0.6778  0.1024  0.2166 -0.6457 -0.2574  0.0000  0.0000  0.0000  0.0000  0.0000      0.0000  0.0000  0.0000  0.0000  0.0000  0.0000  0.0000  0.0000  0.0000  0.0000
  o =  0.2452  v = -0.1625  0.8832  0.2056  0.1766 -0.3464  0.0000  0.0000  0.0000  0.0000  0.0000      0.0000  0.0000  0.0000  0.0000  0.0000  0.0000  0.0000  0.0000  0.0000  0.0000
  o =  0.9707  v =  0.0000  0.0000  0.0000  0.0000  0.0000  0.6634  0.2639 -0.3395  0.4658  0.3976      0.0000  0.0000  0.0000  0.0000  0.0000  0.0000  0.0000  0.0000  0.0000  0.0000
  o =  0.9708  v =  0.0000  0.0000  0.0000  0.0000  0.0000 -0.0510  0.1275  0.6970 -0.0876  0.6983      0.0000  0.0000  0.0000  0.0000  0.0000  0.0000  0.0000  0.0000  0.0000  0.0000
  o =  0.9708  v =  0.0000  0.0000  0.0000  0.0000  0.0000  0.2725 -0.3586  0.5601  0.5670 -0.4025      0.0000  0.0000  0.0000  0.0000  0.0000  0.0000  0.0000  0.0000  0.0000  0.0000
  o =  1.0083  v =  0.0000  0.0000  0.0000  0.0000  0.0000  0.6531  0.2056  0.2308 -0.6236 -0.2984      0.0000  0.0000  0.0000  0.0000  0.0000  0.0000  0.0000  0.0000  0.0000  0.0000
  o =  1.0083  v =  0.0000  0.0000  0.0000  0.0000  0.0000 -0.2379  0.8621  0.1787  0.2549 -0.3212      0.0000  0.0000  0.0000  0.0000  0.0000  0.0000  0.0000  0.0000  0.0000  0.0000

 eigenvalue-minimisations  : 13576
 total energy-change (2. order) :-0.5435686E-07  (-0.3676139E-10)
 number of electron      94.0000159 magnetization       0.0000000
 augmentation part       32.1887653 magnetization      -0.0000025

 Free energy of the ion-electron system (eV)
  alpha Z        PSCENC =       399.77365998
  Ewald energy   TEWEN  =     -8259.24312058
  -Hartree energ DENC   =     -2995.34989294
  -exchange      EXHF   =         0.00000000
  -V(xc)+E(xc)   XCENC  =       411.23416159
  PAW double counting   =     10816.78503899   -10923.36528714
  entropy T*S    EENTRO =        -0.00000000
  eigenvalues    EBANDS =      -938.83161617
  atomic energy  EATOM  =     11427.38436067
  Solvation  Ediel_sol  =         0.00000000
  free energy    TOTEN  =       -61.61269560 eV

  energy without entropy =      -61.61269560  energy(sigma->0) =      -61.61269560

 average (electrostatic) potential at core
  the test charge radii are     1.0856  0.7215  0.9500
  (the norm of the test charge is              1.0000)
       1-104.1783       2-104.1780       3 -68.0272       4 -68.0270       5 -68.0271
       6 -68.0269       7 -68.0267       8 -68.0270       9 -79.4790      10 -79.4793

 E-fermi :   6.2408     XC(G=0): -11.2803     alpha+bet :-12.6810

[...]

 k-point     1 :       0.0000    0.0000    0.0000
  band No.  band energies     occupation
      1     -51.3728      1.00000
      2     -51.3170      1.00000
      3     -51.3170      1.00000
      4     -46.4530      1.00000
      5     -46.4117      1.00000
      6     -46.4117      1.00000
      7     -16.1262      1.00000
      8     -16.1262      1.00000
      9     -16.0531      1.00000
     10     -16.0531      1.00000
     11     -16.0522      1.00000
     12     -16.0122      1.00000
     13     -16.0122      1.00000
     14     -15.9932      1.00000
     15     -15.9711      1.00000
     16     -15.9711      1.00000
     17     -12.4167      1.00000
     18     -10.8129      1.00000
     19     -10.7274      1.00000
     20     -10.7273      1.00000
     21     -10.4511      1.00000
     22     -10.4510      1.00000
     23      -3.7895      1.00000
     24      -2.2517      1.00000
     25      -1.6285      1.00000
     26      -1.6285      1.00000
     27      -1.5229      1.00000
     28      -1.5228      1.00000
     29      -1.3464      1.00000
     30       0.1885      1.00000
     31       1.1625      1.00000
     32       1.1626      1.00000
     33       1.5311      1.00000
     34       1.9071      1.00000
     35       1.9071      1.00000
     36       2.3150      1.00000
     37       3.8894      1.00000
     38       3.8895      1.00000
     39       4.6240      1.00000
     40       4.6241      1.00000
     41       4.6383      1.00000
     42       4.8702      1.00000
     43       4.8703      1.00000
     44       5.2007      1.00000
     45       5.2007      1.00000
     46       5.2674      1.00000
     47       5.4989      1.00000
     48       8.7746      0.00000
     49       8.7746      0.00000
     50       8.8078      0.00000
     51       9.5534      0.00000
     52       9.5535      0.00000
     53      11.2657      0.00000
     54      11.2657      0.00000
     55      11.8096      0.00000
     56      12.1143      0.00000

[...]

 spin component 2

[...]

 k-point    90 :       0.5000    0.5000    0.5000
  band No.  band energies     occupation
      1     -51.3731      1.00000
      2     -51.3172      1.00000
      3     -51.3172      1.00000
      4     -46.4527      1.00000
      5     -46.4115      1.00000
      6     -46.4115      1.00000
      7     -16.0704      1.00000
      8     -16.0703      1.00000
      9     -16.0682      1.00000
     10     -16.0682      1.00000
     11     -16.0233      1.00000
     12     -16.0212      1.00000
     13     -16.0091      1.00000
     14     -16.0091      1.00000
     15     -16.0081      1.00000
     16     -16.0081      1.00000
     17     -11.7144      1.00000
     18     -11.6534      1.00000
     19     -10.6873      1.00000
     20     -10.6872      1.00000
     21     -10.5390      1.00000
     22     -10.5389      1.00000
     23      -3.4130      1.00000
     24      -3.3207      1.00000
     25      -1.6658      1.00000
     26      -1.6658      1.00000
     27      -1.4384      1.00000
     28      -1.4384      1.00000
     29      -1.3050      1.00000
     30       1.3149      1.00000
     31       1.6473      1.00000
     32       1.7738      1.00000
     33       1.7738      1.00000
     34       2.4283      1.00000
     35       2.4284      1.00000
     36       3.1623      1.00000
     37       3.1623      1.00000
     38       3.6134      1.00000
     39       3.7386      1.00000
     40       4.0800      1.00000
     41       4.0801      1.00000
     42       4.5004      1.00000
     43       4.5004      1.00000
     44       5.3762      1.00000
     45       5.3763      1.00000
     46       5.6057      1.00000
     47       5.8858      1.00000
     48       8.5790      0.00000
     49       8.8671      0.00000
     50       8.8671      0.00000
     51       9.2943      0.00000
     52       9.2944      0.00000
     53       9.5855      0.00000
     54       9.9384      0.00000
     55      11.5091      0.00000
     56      11.5099      0.00000

 soft charge-density along one line, spin component           1
         0         1         2         3         4         5         6         7         8         9
 total charge-density along one line

 soft charge-density along one line, spin component           2
         0         1         2         3         4         5         6         7         8         9
 total charge-density along one line

------------------------ aborting loop because EDIFF is reached ----------------------------------------

            Ionic dipole moment: p[ion]=(    -2.85548    -1.61772    -1.13584 ) electrons Angst

    Spin resolved dipole moment: p[sp1]=(    -1.71860    -0.97356    -0.68366 ) electrons Angst
                                 p[sp2]=(     4.06561     2.30345     1.61699 ) electrons Angst

 Total electronic dipole moment: p[elc]=(     2.34702     1.32989     0.93333 ) electrons Angst

 total charge

# of ion     s       p       d       tot
  1        1.653   0.840  10.016  12.509
  2        1.653   0.840  10.016  12.509
  3        1.570   3.475   0.000   5.045
  4        1.569   3.440   0.000   5.009
  5        1.571   3.364   0.000   4.934
  6        1.569   3.456   0.000   5.024
  7        1.570   3.363   0.000   4.934
  8        1.570   3.460   0.000   5.030
  9        0.293   6.349   5.604  12.246
 10        0.293   6.349   5.604  12.246
tot       13.312  34.934  31.239  79.485

 magnetization (x)

[...]

  FORCE on cell =-STRESS in cart. coord.  units (eV):
  Direction    XX          YY          ZZ          XY          YZ          ZX
  Alpha Z   399.77366   399.77366   399.77366
  Ewald   -2766.33717 -2748.58783 -2744.33259   -14.80761    -5.89492   -10.39585
  Hartree   986.91874  1002.36445  1006.06662   -12.88647    -5.12785    -9.04769
  E(xc)    -506.78040  -506.71473  -506.69900    -0.05479    -0.02179    -0.03847
  Local     -61.40642   -96.25913  -104.61380    29.07758    11.57295    20.41459
  n-local    11.60275    10.05042    10.47821     1.54210     0.56366     1.45538
  augment   594.99289   596.33509   596.65675    -1.11985    -0.44548    -0.78626
  Kinetic  1341.96281  1342.63145  1342.32928    -0.91806    -0.90239    -3.33742
  Fock        0.00000     0.00000     0.00000     0.00000     0.00000     0.00000
  Total      -0.00835    -0.00638    -0.00591    -0.00164    -0.00065    -0.00115
  in kB      -0.10409    -0.07955    -0.07367    -0.02047    -0.00815    -0.01438

 VOLUME and BASIS-vectors are now :
  energy-cutoff  :      520.00
  volume of cell :      128.51
      direct lattice vectors                 reciprocal lattice vectors
     5.704587431 -0.000709651 -0.000498300     0.175278007 -0.105032344 -0.073751268
     2.932071183  4.893391139 -0.000498300     0.000018977  0.204338378 -0.073751268
     2.932071183  1.661023208  4.602855525     0.000018977  0.000010751  0.217240470

  length of vectors
     5.704587497  5.704587497  5.704587497     0.217240471  0.217240471  0.217240471

 FORCES acting on ions
    electron-ion (+dipol)            ewald-force                    non-local-force                 convergence-correction
   0.192E+03 0.109E+03 0.763E+02   -.201E+03 -.114E+03 -.798E+02   0.887E+01 0.503E+01 0.353E+01   -.518E-05 -.225E-04 -.105E-04
   0.192E+03 0.109E+03 0.763E+02   -.201E+03 -.114E+03 -.798E+02   0.887E+01 0.503E+01 0.353E+01   0.157E-05 0.260E-04 0.168E-04
   -.267E+00 -.615E+02 -.234E+02   0.338E+01 0.651E+02 0.248E+02   -.311E+01 -.358E+01 -.144E+01   0.144E-05 -.458E-05 0.925E-05
   -.529E+02 -.113E+02 0.375E+02   0.575E+02 0.130E+02 -.372E+02   -.467E+01 -.164E+01 -.290E+00   0.386E-05 0.875E-05 -.124E-05
   -.369E+02 0.218E+02 -.499E+02   0.407E+02 -.205E+02 0.528E+02   -.381E+01 -.135E+01 -.288E+01   -.208E-05 0.593E-05 -.293E-05
   -.369E+02 -.395E+02 0.375E+02   0.407E+02 0.427E+02 -.372E+02   -.381E+01 -.316E+01 -.290E+00   0.901E-06 0.641E-05 -.745E-05
   -.231E+00 -.429E+02 -.499E+02   0.335E+01 0.454E+02 0.528E+02   -.311E+01 -.257E+01 -.288E+01   -.231E-05 -.120E-04 0.893E-05
   -.529E+02 0.314E+02 -.234E+02   0.575E+02 -.306E+02 0.248E+02   -.467E+01 -.830E+00 -.144E+01   -.780E-06 -.440E-05 -.827E-05
   -.972E+02 -.551E+02 -.387E+02   0.990E+02 0.561E+02 0.394E+02   -.184E+01 -.104E+01 -.732E+00   0.150E-04 -.721E-05 -.433E-05
   -.972E+02 -.551E+02 -.387E+02   0.991E+02 0.561E+02 0.394E+02   -.184E+01 -.104E+01 -.732E+00   -.903E-05 0.784E-05 -.152E-05
   0.912E+01 0.518E+01 0.363E+01   -.995E-13 0.284E-13 0.142E-13   -.912E+01 -.517E+01 -.363E+01   0.339E-05 0.425E-05 -.117E-05

 POSITION                                       TOTAL-FORCE (eV/Angst)
      3.22637      1.82774      1.28340         0.000589      0.000334      0.000234
      9.01084      5.10467      3.58437        -0.001124     -0.000637     -0.000447
      6.84150      2.40614      3.74205         0.000674     -0.000643      0.000267
      5.58099      5.09221      3.08553        -0.000205      0.000559      0.000764
      7.23692      3.63873      0.99263         0.000374      0.000561     -0.000695
      4.38468      3.78559      0.78406        -0.000766      0.000241      0.000425
      3.98918      2.72096      3.29448         0.000019     -0.000905      0.000082
      5.50117      1.35366      1.44072        -0.000187      0.000135     -0.000879
      5.77431      3.27115      2.29693        -0.000339     -0.000192     -0.000135
     11.55865      6.54799      4.59785         0.000965      0.000546      0.000384
    total drift:                               -0.002741      0.010403     -0.001073

  FREE ENERGIE OF THE ION-ELECTRON SYSTEM (eV)
  free  energy   TOTEN  =       -61.61269560 eV

  energy  without entropy=      -61.61269560  energy(sigma->0) =      -61.61269560

 total charge

[...]

 magnetization (x)

# of ion     s       p       d       tot
  1        0.001  -0.002   0.001  -0.001
  2       -0.001   0.002  -0.001   0.001
  3        0.001   0.027   0.000   0.028
  4        0.001   0.031   0.000   0.032
  5        0.000   0.035   0.000   0.035
  6       -0.001  -0.032   0.000  -0.033
  7       -0.001  -0.033   0.000  -0.034
  8       -0.001  -0.027   0.000  -0.028
  9        0.016   0.021   4.229   4.266
 10       -0.016  -0.021  -4.229  -4.266
tot        0.000  -0.000  -0.000  -0.000