 vasp.5.4.1 24Jun15 (build Jul 08 2015 18:11:14) complex

 executed on           IFC91_ompi date 2015.12.24  04:33:07

 INCAR:
 POTCAR:    PAW_PBE Bi_d 06Sep2000
 POTCAR:    PAW_PBE O 08Apr2002
 POTCAR:    PAW_PBE Fe_pv 02Aug2007
 POTCAR:    PAW_PBE Bi_d 06Sep2000
   VRHFIN =Bi:

   TITEL  = PAW_PBE Bi_d 06Sep2000
   POMASS =  208.980; ZVAL   =   15.000    mass and valenz
   ENMAX  =  242.839; ENMIN  =  182.129 eV

 POTCAR:    PAW_PBE O 08Apr2002
   VRHFIN =O: s2p4

   TITEL  = PAW_PBE O 08Apr2002
   POMASS =   16.000; ZVAL   =    6.000    mass and valenz
   ENMAX  =  400.000; ENMIN  =  300.000 eV

 POTCAR:    PAW_PBE Fe_pv 02Aug2007
   VRHFIN =Fe:  3pd7s1

   TITEL  = PAW_PBE Fe_pv 02Aug2007
   POMASS =   55.847; ZVAL   =   14.000    mass and valenz
   ENMAX  =  293.238; ENMIN  =  219.928 eV

  PAW_PBE Bi_d 06Sep2000                :
  PAW_PBE O 08Apr2002                   :
  PAW_PBE Fe_pv 02Aug2007               :

 POSCAR: Bi    O   Fe
  positions in direct lattice
  velocities in cartesian coordinates
 exchange correlation table for  LEXCH =        8
   RHO(1)=    0.500       N(1)  =     2000
   RHO(2)=  100.500       N(2)  =     4000

 ion  position               nearest neighbor table
   1  0.279  0.279  0.279-   6 2.33   7 2.33   8 2.33   5 2.50   3 2.50   4 2.50   9 3.10  10 3.33
                            10 3.33  10 3.33
   2  0.779  0.779  0.779-   3 2.33   4 2.33   5 2.33   8 2.50   6 2.50   7 2.50  10 3.10   9 3.33
                             9 3.33   9 3.33
   3  0.671  0.216  0.813-   9 2.00  10 2.11   2 2.33   1 2.50
   4  0.216  0.813  0.671-   9 2.00  10 2.11   2 2.33   1 2.50
   5  0.813  0.671  0.216-   9 2.00  10 2.11   2 2.33   1 2.50
   6  0.313  0.716  0.171-  10 2.00   9 2.11   1 2.33   2 2.50
   7  0.171  0.313  0.716-  10 2.00   9 2.11   1 2.33   2 2.50
   8  0.716  0.171  0.313-  10 2.00   9 2.11   1 2.33   2 2.50
   9  0.499  0.499  0.499-   5 2.00   4 2.00   3 2.00   6 2.11   8 2.11   7 2.11   1 3.10   2 3.33
                             2 3.33   2 3.33
  10  0.999  0.999  0.999-   7 2.00   8 2.00   6 2.00   5 2.11   3 2.11   4 2.11   2 3.10   1 3.33
                             1 3.33   1 3.33

  LATTYP: Found a trigonal (rhomboedric) cell.
 ALAT       =     5.7033319991
 COS(alpha) =     0.5137248740

  Lattice vectors:

 A1 = (   5.7033318047,  -0.0012187622,  -0.0008557865)
 A2 = (   2.9309889935,   4.8925758737,  -0.0008557865)
 A3 = (   2.9309889935,   1.6604101460,   4.6022100734)

Analysis of symmetry for initial positions (statically):
 Subroutine PRICEL returns:
 Original cell was already a primitive cell.

 Routine SETGRP: Setting up the symmetry group for a
 trigonal (rhombohedral) supercell.

 Subroutine GETGRP returns: Found  6 space group operations
 (whereof  3 operations were pure point group operations)
 out of a pool of 12 trial point group operations.

The static configuration has the point symmetry C_3 .
 The point group associated with its full space group is C_3v.

Analysis of symmetry for dynamics (positions and initial velocities):
 Subroutine PRICEL returns:
 Original cell was already a primitive cell.

 Routine SETGRP: Setting up the symmetry group for a
 trigonal (rhombohedral) supercell.

 Subroutine GETGRP returns: Found  6 space group operations
 (whereof  3 operations were pure point group operations)
 out of a pool of 12 trial point group operations.

The dynamic configuration has the point symmetry C_3 .
 The point group associated with its full space group is C_3v.

Analysis of magnetic symmetry:
 Subroutine PRICEL returns:
 Original cell was already a primitive cell.

 Subroutine MAGSYM returns: Found  6 space group operations
 (whereof  3 operations were pure point group operations)
 out of a pool of  6 trial space group operations
 (whereof  3 operations were pure point group operations)
 and found also     1 'primitive' translations

The magnetic configuration has the point symmetry C_3 .
 The point group associated with its full space group is C_3v.

 KPOINTS: Gamma centred mesh

Automatic generation of k-mesh.
Space group operators:
 irot       det(A)        alpha          n_x          n_y          n_z        tau_x        tau_y        tau_z
    1     1.000000     0.000000     1.000000     0.000000     0.000000     0.000000     0.000000     0.000000
    2     1.000000   120.000000    -0.822229    -0.465794    -0.327070     0.000000     0.000000     0.000000
    3     1.000000   120.000000     0.822229     0.465794     0.327070     0.000000     0.000000     0.000000
    4    -1.000000   180.000000     0.000000    -0.574657     0.818394     0.499993     0.499992     0.499988
    5    -1.000000   180.000000    -0.492904     0.870084     0.000000     0.499988     0.499993     0.499992
    6    -1.000000   180.000000    -0.492904     0.295426     0.818394     0.499992     0.499988     0.499993

 Subroutine IBZKPT returns following result:

 Found     65 irreducible k-points:

 Following reciprocal coordinates:
            Coordinates               Weight
  0.000000  0.000000  0.000000      1.000000
  0.125000  0.000000  0.000000      6.000000
  0.250000  0.000000  0.000000      6.000000
  0.375000  0.000000 -0.000000      6.000000
  0.500000  0.000000  0.000000      3.000000
  0.125000  0.125000  0.000000      6.000000
  0.250000  0.125000  0.000000     12.000000
  0.375000  0.125000 -0.000000     12.000000
  0.500000  0.125000 -0.000000     12.000000
 -0.375000  0.125000 -0.000000     12.000000
 -0.250000  0.125000  0.000000     12.000000
 -0.125000  0.125000  0.000000      6.000000
  0.250000  0.250000  0.000000      6.000000
  0.375000  0.250000  0.000000     12.000000
  0.500000  0.250000  0.000000     12.000000
 -0.375000  0.250000  0.000000     12.000000
 -0.250000  0.250000  0.000000      6.000000
  0.375000  0.375000 -0.000000      6.000000
  0.500000  0.375000  0.000000     12.000000
 -0.375000  0.375000  0.000000      6.000000
  0.500000  0.500000  0.000000      3.000000
  0.125000  0.125000  0.125000      2.000000
  0.250000  0.125000  0.125000      6.000000
  0.375000  0.125000  0.125000      6.000000
  0.500000  0.125000  0.125000      6.000000
 -0.375000  0.125000  0.125000      6.000000
 -0.250000  0.125000  0.125000      6.000000
 -0.125000  0.125000  0.125000      6.000000
  0.250000  0.250000  0.125000      6.000000
  0.375000  0.250000  0.125000     12.000000
  0.500000  0.250000  0.125000     12.000000
 -0.375000  0.250000  0.125000     12.000000
 -0.250000  0.250000  0.125000     12.000000
 -0.125000  0.250000  0.125000     12.000000
  0.375000  0.375000  0.125000      6.000000
  0.500000  0.375000  0.125000     12.000000
 -0.375000  0.375000  0.125000     12.000000
 -0.250000  0.375000  0.125000     12.000000
 -0.125000  0.375000  0.125000     12.000000
  0.500000  0.500000  0.125000      6.000000
 -0.375000  0.500000  0.125000     12.000000
 -0.250000  0.500000  0.125000     12.000000
 -0.125000  0.500000  0.125000      6.000000
 -0.375000 -0.375000  0.125000      6.000000
 -0.250000 -0.375000  0.125000     12.000000
 -0.250000 -0.250000  0.125000      6.000000
  0.250000  0.250000  0.250000      2.000000
  0.375000  0.250000  0.250000      6.000000
  0.500000  0.250000  0.250000      6.000000
 -0.375000  0.250000  0.250000      6.000000
 -0.250000  0.250000  0.250000      6.000000
  0.375000  0.375000  0.250000      6.000000
  0.500000  0.375000  0.250000     12.000000
 -0.375000  0.375000  0.250000     12.000000
 -0.250000  0.375000  0.250000     12.000000
  0.500000  0.500000  0.250000      6.000000
 -0.375000  0.500000  0.250000     12.000000
 -0.250000  0.500000  0.250000      6.000000
 -0.375000 -0.375000  0.250000      6.000000
  0.375000  0.375000  0.375000      2.000000
  0.500000  0.375000  0.375000      6.000000
 -0.375000  0.375000  0.375000      6.000000
  0.500000  0.500000  0.375000      6.000000
 -0.375000  0.500000  0.375000      6.000000
  0.500000  0.500000  0.500000      1.000000

 Following cartesian coordinates:
            Coordinates               Weight
  0.000000  0.000000  0.000000      1.000000
  0.021913 -0.013129 -0.009219      6.000000
  0.043826 -0.026258 -0.018438      6.000000
  0.065738 -0.039387 -0.027656      6.000000
  0.087651 -0.052516 -0.036875      3.000000
  0.021917  0.012416 -0.018438      6.000000
  0.043830 -0.000713 -0.027656     12.000000
  0.065743 -0.013842 -0.036875     12.000000
  0.087655 -0.026971 -0.046094     12.000000
 -0.065734  0.064932  0.018438     12.000000
 -0.043822  0.051803  0.009219     12.000000
 -0.021909  0.038674  0.000000      6.000000
  0.043834  0.024832 -0.036875      6.000000
  0.065747  0.011703 -0.046094     12.000000
  0.087659 -0.001426 -0.055313     12.000000
 -0.065730  0.090476  0.009219     12.000000
 -0.043817  0.077348  0.000000      6.000000
  0.065751  0.037248 -0.055313      6.000000
  0.087664  0.024119 -0.064532     12.000000
 -0.065726  0.116021  0.000000      6.000000
  0.087668  0.049664 -0.073750      3.000000
  0.021921  0.012418  0.008720      2.000000
  0.043834 -0.000711 -0.000499      6.000000
  0.065747 -0.013840 -0.009718      6.000000
  0.087659 -0.026968 -0.018937      6.000000
 -0.065730  0.064934  0.045595      6.000000
 -0.043817  0.051805  0.036376      6.000000
 -0.021905  0.038676  0.027157      6.000000
  0.043838  0.024834 -0.009718      6.000000
  0.065751  0.011705 -0.018937     12.000000
  0.087664 -0.001424 -0.028155     12.000000
 -0.065726  0.090479  0.036376     12.000000
 -0.043813  0.077350  0.027157     12.000000
 -0.021901  0.064221  0.017939     12.000000
  0.065755  0.037250 -0.028155      6.000000
  0.087668  0.024121 -0.037374     12.000000
 -0.065722  0.116024  0.027157     12.000000
 -0.043809  0.102895  0.017939     12.000000
 -0.021897  0.089766  0.008720     12.000000
  0.087672  0.049666 -0.046593      6.000000
 -0.065718  0.141568  0.017939     12.000000
 -0.043805  0.128440  0.008720     12.000000
 -0.021892  0.115311 -0.000499      6.000000
 -0.065747 -0.037246  0.082470      6.000000
 -0.043834 -0.050374  0.073251     12.000000
 -0.043830 -0.024830  0.064033      6.000000
  0.043842  0.024837  0.017440      2.000000
  0.065755  0.011708  0.008221      6.000000
  0.087668 -0.001421 -0.000998      6.000000
 -0.065722  0.090481  0.063534      6.000000
 -0.043809  0.077352  0.054315      6.000000
  0.065759  0.037252 -0.000998      6.000000
  0.087672  0.024124 -0.010217     12.000000
 -0.065718  0.116026  0.054315     12.000000
 -0.043805  0.102897  0.045096     12.000000
  0.087676  0.049668 -0.019436      6.000000
 -0.065714  0.141571  0.045096     12.000000
 -0.043801  0.128442  0.035877      6.000000
 -0.065743 -0.037243  0.109628      6.000000
  0.065763  0.037255  0.026159      2.000000
  0.087676  0.024126  0.016941      6.000000
 -0.065714  0.116028  0.081472      6.000000
  0.087680  0.049671  0.007722      6.000000
 -0.065710  0.141573  0.072253      6.000000
  0.087684  0.049673  0.034879      1.000000

 Subroutine IBZKPT_HF returns following result:

 Found    512 k-points in 1st BZ
 the following    512 k-points will be used (e.g. in the exchange kernel)
 Following reciprocal coordinates:   # in IRBZ
[...]

  energy without entropy =     1367.14408932  energy(sigma->0) =     1367.14378941

[...]

 eigenvalue-minimisations  : 14896
 total energy-change (2. order) :-0.1203167E+04  (-0.1169878E+04)
 number of electron      94.0000137 magnetization       0.0000000
 augmentation part       94.0000137 magnetization       0.0000000

[...]

 Broyden mixing:
  rms(total) = 0.54527E-02    rms(broyden)= 0.54491E-02
  rms(prec ) = 0.71575E-02
  weight for this iteration     100.00

[...]

 eigenvalues of (default mixing * dielectric matrix)
  average eigenvalue GAMMA=   0.3325
  0.3325

[...]

 eigenvalue-minimisations  : 18696
 total energy-change (2. order) :-0.3152636E-06  (-0.6428249E-05)
 number of electron      94.0000137 magnetization       0.0000000
 augmentation part       32.1770900 magnetization       0.0000000

[...]

 Broyden mixing:
  rms(total) = 0.25762E-03    rms(broyden)= 0.25760E-03
  rms(prec ) = 0.51796E-03
  weight for this iteration     100.00

 eigenvalues of (default mixing * dielectric matrix)
  average eigenvalue GAMMA=   1.0357
  2.1064  2.1064  0.9492  0.9492  0.7901  0.7901  0.4705  0.5798  0.5798

[...]

----------------------------------------- Iteration    1(  15)  ---------------------------------------

atom =   9  type =  3  l = 2

[...]

  o =  0.0608  v =  0.0000  0.0000  0.0000  0.0000  0.0000 -0.6634 -0.2639  0.3395 -0.4658 -0.3976      0.0000  0.0000  0.0000  0.0000  0.0000  0.0000  0.0000  0.0000  0.0000  0.0000
  o =  0.0615  v =  0.0000  0.0000  0.0000  0.0000  0.0000  0.4466  0.1496  0.8645  0.0524 -0.1676      0.0000  0.0000  0.0000  0.0000  0.0000  0.0000  0.0000  0.0000  0.0000  0.0000
  o =  0.0615  v =  0.0000  0.0000  0.0000  0.0000  0.0000  0.4511 -0.6686 -0.2254  0.0375 -0.5453      0.0000  0.0000  0.0000  0.0000  0.0000  0.0000  0.0000  0.0000  0.0000  0.0000
  o =  0.2356  v =  0.0000  0.0000  0.0000  0.0000  0.0000  0.0047  0.6637 -0.2554  0.0307 -0.7023      0.0000  0.0000  0.0000  0.0000  0.0000  0.0000  0.0000  0.0000  0.0000  0.0000
  o =  0.2356  v =  0.0000  0.0000  0.0000  0.0000  0.0000 -0.3962 -0.1430  0.1464  0.8820 -0.1524      0.0000  0.0000  0.0000  0.0000  0.0000  0.0000  0.0000  0.0000  0.0000  0.0000
  o =  0.9732  v =  0.6634  0.2638 -0.3396  0.4658  0.3976  0.0000  0.0000  0.0000  0.0000  0.0000      0.0000  0.0000  0.0000  0.0000  0.0000  0.0000  0.0000  0.0000  0.0000  0.0000
  o =  0.9733  v =  0.4471  0.1473  0.8655  0.0505 -0.1637  0.0000  0.0000  0.0000  0.0000  0.0000      0.0000  0.0000  0.0000  0.0000  0.0000  0.0000  0.0000  0.0000  0.0000  0.0000
  o =  0.9733  v =  0.4495 -0.6704 -0.2236  0.0415 -0.5447  0.0000  0.0000  0.0000  0.0000  0.0000      0.0000  0.0000  0.0000  0.0000  0.0000  0.0000  0.0000  0.0000  0.0000  0.0000
  o =  1.0131  v = -0.0136 -0.6652  0.2540 -0.0178  0.7018  0.0000  0.0000  0.0000  0.0000  0.0000      0.0000  0.0000  0.0000  0.0000  0.0000  0.0000  0.0000  0.0000  0.0000  0.0000
  o =  1.0131  v =  0.3973  0.1296 -0.1453 -0.8823  0.1607  0.0000  0.0000  0.0000  0.0000  0.0000      0.0000  0.0000  0.0000  0.0000  0.0000  0.0000  0.0000  0.0000  0.0000  0.0000
atom =  10  type =  3  l = 2

 onsite density matrix

[...]

  0.9925 -0.0028  0.0043 -0.0186 -0.0048
 -0.0028  1.0045  0.0081  0.0037 -0.0135
  0.0043  0.0081  0.9767 -0.0039 -0.0051
 -0.0186  0.0037 -0.0039  0.9913  0.0042
 -0.0048 -0.0135 -0.0051  0.0042  0.9809

 occupancies and eigenvectors

  o =  0.0608  v =  0.6634  0.2639 -0.3395  0.4658  0.3976  0.0000  0.0000  0.0000  0.0000  0.0000      0.0000  0.0000  0.0000  0.0000  0.0000  0.0000  0.0000  0.0000  0.0000  0.0000
  o =  0.0615  v = -0.1504  0.1582 -0.8895 -0.3349 -0.2213  0.0000  0.0000  0.0000  0.0000  0.0000      0.0000  0.0000  0.0000  0.0000  0.0000  0.0000  0.0000  0.0000  0.0000  0.0000
  o =  0.0615  v = -0.2308  0.3424  0.0829 -0.4681  0.7769  0.0000  0.0000  0.0000  0.0000  0.0000      0.0000  0.0000  0.0000  0.0000  0.0000  0.0000  0.0000  0.0000  0.0000  0.0000
  o =  0.2356  v =  0.6840  0.0590  0.2015 -0.6562 -0.2397  0.0000  0.0000  0.0000  0.0000  0.0000      0.0000  0.0000  0.0000  0.0000  0.0000  0.0000  0.0000  0.0000  0.0000  0.0000
  o =  0.2356  v = -0.1271  0.8858  0.2146  0.1457 -0.3633  0.0000  0.0000  0.0000  0.0000  0.0000      0.0000  0.0000  0.0000  0.0000  0.0000  0.0000  0.0000  0.0000  0.0000  0.0000
  o =  0.9732  v =  0.0000  0.0000  0.0000  0.0000  0.0000 -0.6634 -0.2639  0.3396 -0.4658 -0.3976      0.0000  0.0000  0.0000  0.0000  0.0000  0.0000  0.0000  0.0000  0.0000  0.0000
  o =  0.9733  v =  0.0000  0.0000  0.0000  0.0000  0.0000 -0.1550  0.1616 -0.8895 -0.3340 -0.2171      0.0000  0.0000  0.0000  0.0000  0.0000  0.0000  0.0000  0.0000  0.0000  0.0000
  o =  0.9733  v =  0.0000  0.0000  0.0000  0.0000  0.0000 -0.2291  0.3458  0.0888 -0.4671  0.7758      0.0000  0.0000  0.0000  0.0000  0.0000  0.0000  0.0000  0.0000  0.0000  0.0000
  o =  1.0131  v =  0.0000  0.0000  0.0000  0.0000  0.0000 -0.6798 -0.0851 -0.2036  0.6520  0.2530      0.0000  0.0000  0.0000  0.0000  0.0000  0.0000  0.0000  0.0000  0.0000  0.0000
  o =  1.0131  v =  0.0000  0.0000  0.0000  0.0000  0.0000  0.1459 -0.8817 -0.2102 -0.1679  0.3590      0.0000  0.0000  0.0000  0.0000  0.0000  0.0000  0.0000  0.0000  0.0000  0.0000

 eigenvalue-minimisations  : 10216
 total energy-change (2. order) : 0.4501089E-07  (-0.2730036E-08)
 number of electron      94.0000137 magnetization       0.0000000
 augmentation part       32.1767217 magnetization       0.0000000

 Free energy of the ion-electron system (eV)
  alpha Z        PSCENC =       399.94191367
  Ewald energy   TEWEN  =     -8260.55041820
  -Hartree energ DENC   =     -2990.85329632
  -exchange      EXHF   =         0.00000000
  -V(xc)+E(xc)   XCENC  =       411.26027019
  PAW double counting   =     10853.93203914   -10955.77784201
  entropy T*S    EENTRO =        -0.00000000
  eigenvalues    EBANDS =      -946.34269871
  atomic energy  EATOM  =     11427.38436067
  Solvation  Ediel_sol  =         0.00000000
  free energy    TOTEN  =       -61.00567156 eV

  energy without entropy =      -61.00567156  energy(sigma->0) =      -61.00567156

 average (electrostatic) potential at core
  the test charge radii are     1.0856  0.7215  0.9500
  (the norm of the test charge is              1.0000)
       1-104.1502       2-104.1497       3 -67.9801       4 -67.9799       5 -67.9804
       6 -67.9780       7 -67.9775       8 -67.9782       9 -79.6966      10 -79.6919

 E-fermi :   6.2682     XC(G=0): -11.2846     alpha+bet :-12.6864

[...]

 k-point     1 :       0.0000    0.0000    0.0000
  band No.  band energies     occupation
      1     -51.6153      1.00000
      2     -51.5621      1.00000
      3     -51.5621      1.00000
      4     -46.6275      1.00000
      5     -46.5880      1.00000
      6     -46.5879      1.00000
      7     -16.0965      1.00000
      8     -16.0965      1.00000
      9     -16.0248      1.00000
     10     -16.0248      1.00000
     11     -16.0248      1.00000
     12     -15.9835      1.00000
     13     -15.9835      1.00000
     14     -15.9655      1.00000
     15     -15.9425      1.00000
     16     -15.9425      1.00000
     17     -12.3909      1.00000
     18     -10.7816      1.00000
     19     -10.7074      1.00000
     20     -10.7072      1.00000
     21     -10.4310      1.00000
     22     -10.4307      1.00000
     23      -3.7850      1.00000
     24      -2.2425      1.00000
     25      -2.2395      1.00000
     26      -2.2394      1.00000
     27      -2.1318      1.00000
     28      -2.1317      1.00000
     29      -1.9400      1.00000
     30       0.1804      1.00000
     31       1.1349      1.00000
     32       1.1350      1.00000
     33       1.5449      1.00000
     34       1.8888      1.00000
     35       1.8889      1.00000
     36       2.3003      1.00000
     37       3.9272      1.00000
     38       3.9273      1.00000
     39       4.6398      1.00000
     40       4.6400      1.00000
     41       4.6642      1.00000
     42       4.8440      1.00000
     43       4.8440      1.00000
     44       5.2295      1.00000
     45       5.2295      1.00000
     46       5.2992      1.00000
     47       5.5251      1.00000
     48       9.0421      0.00000
     49       9.0421      0.00000
     50       9.0834      0.00000
     51       9.6747      0.00000
     52       9.6748      0.00000
     53      11.3005      0.00000
     54      11.3005      0.00000
     55      11.8403      0.00000
     56      12.1389      0.00000

[...]

 spin component 2

[...]

 k-point    65 :       0.5000    0.5000    0.5000
  band No.  band energies     occupation
      1     -51.6104      1.00000
      2     -51.5575      1.00000
      3     -51.5575      1.00000
      4     -46.6323      1.00000
      5     -46.5926      1.00000
      6     -46.5925      1.00000
      7     -16.0412      1.00000
      8     -16.0411      1.00000
      9     -16.0390      1.00000
     10     -16.0390      1.00000
     11     -15.9958      1.00000
     12     -15.9936      1.00000
     13     -15.9807      1.00000
     14     -15.9807      1.00000
     15     -15.9796      1.00000
     16     -15.9795      1.00000
     17     -11.6819      1.00000
     18     -11.6296      1.00000
     19     -10.6756      1.00000
     20     -10.6753      1.00000
     21     -10.5098      1.00000
     22     -10.5097      1.00000
     23      -3.4344      1.00000
     24      -3.2952      1.00000
     25      -2.2774      1.00000
     26      -2.2773      1.00000
     27      -2.0676      1.00000
     28      -2.0676      1.00000
     29      -1.8929      1.00000
     30       1.3188      1.00000
     31       1.6217      1.00000
     32       1.8055      1.00000
     33       1.8056      1.00000
     34       2.3992      1.00000
     35       2.3993      1.00000
     36       3.1892      1.00000
     37       3.1893      1.00000
     38       3.6490      1.00000
     39       3.7603      1.00000
     40       4.0878      1.00000
     41       4.0880      1.00000
     42       4.5412      1.00000
     43       4.5414      1.00000
     44       5.3194      1.00000
     45       5.3195      1.00000
     46       5.6526      1.00000
     47       5.9053      1.00000
     48       8.7757      0.00000
     49       9.1209      0.00000
     50       9.1210      0.00000
     51       9.4370      0.00000
     52       9.4370      0.00000
     53       9.5962      0.00000
     54      10.0249      0.00000
     55      11.5338      0.00000
     56      11.5349      0.00000

 soft charge-density along one line, spin component           1
         0         1         2         3         4         5         6         7         8         9
 total charge-density along one line

 soft charge-density along one line, spin component           2
         0         1         2         3         4         5         6         7         8         9
 total charge-density along one line

------------------------ aborting loop because EDIFF is reached ----------------------------------------

            Ionic dipole moment: p[ion]=(    -2.81320    -1.59377    -1.11902 ) electrons Angst

    Spin resolved dipole moment: p[sp1]=(    -1.72668    -0.97814    -0.68688 ) electrons Angst
                                 p[sp2]=(     4.05637     2.29749     1.61298 ) electrons Angst

 Total electronic dipole moment: p[elc]=(     2.32969     1.31936     0.92610 ) electrons Angst

 total charge

# of ion     s       p       d       tot
  1        1.654   0.839  10.015  12.508
  2        1.654   0.840  10.016  12.509
  3        1.569   3.491   0.000   5.060
  4        1.568   3.430   0.000   4.998
  5        1.570   3.371   0.000   4.941
  6        1.568   3.472   0.000   5.040
  7        1.570   3.369   0.000   4.939
  8        1.569   3.448   0.000   5.017
  9        0.296   6.353   5.581  12.230
 10        0.296   6.353   5.580  12.229
tot       13.313  34.966  31.192  79.471

 magnetization (x)

[...]

  FORCE on cell =-STRESS in cart. coord.  units (eV):
  Direction    XX          YY          ZZ          XY          YZ          ZX
  Alpha Z   399.94191   399.94191   399.94191
  Ewald   -2764.63699 -2749.74883 -2746.17908   -12.42076    -4.94550    -8.71980
  Hartree   986.61838  1000.45742  1003.77662   -11.54870    -4.59520    -8.10771
  E(xc)    -506.77287  -506.71106  -506.69630    -0.05151    -0.02049    -0.03617
  Local     -63.94295   -94.35012  -101.64601    25.37573    10.09813    17.81483
  n-local    11.99107    10.99475    11.26967     1.78900     0.05186     1.74305
  augment   595.60176   596.92261   597.24018    -1.10320    -0.43845    -0.77449
  Kinetic  1342.21601  1341.98011  1341.79128    -1.48379     0.84319    -4.23048
  Fock        0.00000     0.00000     0.00000     0.00000     0.00000     0.00000
  Total      -0.00084     0.00091     0.00133    -0.00146    -0.00058    -0.00102
  in kB      -0.01046     0.01134     0.01657    -0.01819    -0.00724    -0.01277

 VOLUME and BASIS-vectors are now :
  energy-cutoff  :      520.00
  volume of cell :      128.45
      direct lattice vectors                 reciprocal lattice vectors
     5.703331805 -0.001218762 -0.000855786     0.175302597 -0.105031196 -0.073750462
     2.930988994  4.892575874 -0.000855786     0.000032604  0.204358880 -0.073750462
     2.930988994  1.660410146  4.602210073     0.000032604  0.000018470  0.217259481

  length of vectors
     5.703331999  5.703331999  5.703331999     0.217259484  0.217259484  0.217259484

 FORCES acting on ions
    electron-ion (+dipol)            ewald-force                    non-local-force                 convergence-correction
   0.192E+03 0.109E+03 0.763E+02   -.201E+03 -.114E+03 -.798E+02   0.888E+01 0.503E+01 0.353E+01   0.307E-03 0.207E-03 0.127E-03
   0.192E+03 0.109E+03 0.763E+02   -.201E+03 -.114E+03 -.798E+02   0.888E+01 0.503E+01 0.353E+01   0.425E-03 0.211E-03 0.183E-03
   0.694E+00 -.626E+02 -.220E+02   0.229E+01 0.662E+02 0.235E+02   -.299E+01 -.359E+01 -.140E+01   0.484E-04 -.261E-04 -.237E-04
   -.534E+02 -.954E+01 0.383E+02   0.579E+02 0.112E+02 -.381E+02   -.462E+01 -.157E+01 -.201E+00   -.108E-04 0.605E-05 0.589E-04
   -.356E+02 0.222E+02 -.514E+02   0.394E+02 -.209E+02 0.543E+02   -.372E+01 -.126E+01 -.290E+01   -.316E-05 0.281E-04 -.255E-04
   -.357E+02 -.407E+02 0.384E+02   0.393E+02 0.440E+02 -.381E+02   -.372E+01 -.315E+01 -.201E+00   -.397E-04 -.136E-04 0.328E-05
   0.750E+00 -.420E+02 -.514E+02   0.225E+01 0.445E+02 0.543E+02   -.299E+01 -.254E+01 -.290E+01   -.276E-04 -.293E-04 -.313E-05
   -.533E+02 0.328E+02 -.221E+02   0.579E+02 -.321E+02 0.234E+02   -.462E+01 -.720E+00 -.140E+01   -.139E-04 0.915E-05 -.394E-04
   -.993E+02 -.563E+02 -.395E+02   0.101E+03 0.572E+02 0.402E+02   -.175E+01 -.992E+00 -.697E+00   0.112E-03 0.399E-04 0.228E-04
   -.993E+02 -.563E+02 -.395E+02   0.101E+03 0.573E+02 0.402E+02   -.175E+01 -.992E+00 -.697E+00   -.130E-03 -.707E-04 -.696E-04
   0.838E+01 0.479E+01 0.333E+01   0.995E-13 -.568E-13 -.142E-13   -.840E+01 -.476E+01 -.334E+01   0.667E-03 0.361E-03 0.234E-03

 POSITION                                       TOTAL-FORCE (eV/Angst)
      3.22352      1.82613      1.28226        -0.000847     -0.000480     -0.000337
      9.00627      5.10208      3.58255        -0.000847     -0.000480     -0.000337
      6.84227      2.40532      3.74091         0.000718     -0.000079     -0.000603
      5.58068      5.09150      3.08693         0.000302     -0.000344      0.000822
      7.23615      3.64008      0.99225        -0.000140      0.000921      0.000131
      4.38454      3.78585      0.78578        -0.000140      0.000436      0.000822
      3.99057      2.71997      3.29414         0.000718     -0.000594      0.000131
      5.50132      1.35519      1.43990         0.000302      0.000657     -0.000603
      5.76900      3.26815      2.29481        -0.000033     -0.000019     -0.000013
     11.55162      6.54401      4.59505        -0.000033     -0.000019     -0.000013
    total drift:                               -0.013372      0.036858     -0.012598

  FREE ENERGIE OF THE ION-ELECTRON SYSTEM (eV)
  free  energy   TOTEN  =       -61.00567156 eV

  energy  without entropy=      -61.00567156  energy(sigma->0) =      -61.00567156

 total charge

[...]

 magnetization (x)

# of ion     s       p       d       tot
  1        0.001  -0.002   0.000  -0.001
  2       -0.001   0.002  -0.000   0.001
  3        0.001   0.023   0.000   0.024
  4        0.001   0.025   0.000   0.026
  5       -0.000   0.032   0.000   0.032
  6       -0.000  -0.030   0.000  -0.030
  7       -0.001  -0.027   0.000  -0.028
  8       -0.001  -0.023   0.000  -0.024
  9        0.017   0.023   4.286   4.325
 10       -0.017  -0.023  -4.287  -4.326
tot       -0.000   0.001  -0.001   0.000